LAMMPS (2 Aug 2023 - Update 1)
Reading data file ...
  orthogonal box = (0 0 0) to (6.5850607 6.5850607 6.5850607)
  2 by 4 by 5 MPI processor grid
  reading atoms ...
  12 atoms
  read_data CPU = 0.048 seconds
Replication is creating a 6x6x6 = 216 times larger system...
  orthogonal box = (0 0 0) to (39.510364 39.510364 39.510364)
  2 by 4 by 5 MPI processor grid
  2592 atoms
  replicate CPU = 0.003 seconds
1728 atoms in group Ag
864 atoms in group Te
Generated 0 of 1 mixed pair_coeff terms from geometric mixing rule
Neighbor list info ...
  update: every = 1 steps, delay = 0 steps, check = yes
  max neighbors/atom: 2000, page size: 100000
  master list distance cutoff = 10.3
  ghost atom cutoff = 10.3
  binsize = 5.15, bins = 8 8 8
  1 neighbor lists, perpetual/occasional/extra = 1 0 0
  (1) pair lj/cut, perpetual
      attributes: half, newton on
      pair build: half/bin/atomonly/newton
      stencil: half/bin/3d
      bin: standard
Setting up Verlet run ...
  Unit style    : metal
  Current step  : 0
  Time step     : 0.001
Per MPI rank memory allocation (min/avg/max) = 3.123 | 3.128 | 3.13 Mbytes
   Step          Temp          Press            Lx             Ly             Lz      
         0   400           -95782.829      39.510364      39.510364      39.510364    
      1000   406.31184     -105.50931      36.691912      36.67907       36.686831    
      2000   402.32774      130.81305      36.677026      36.731575      36.673999    
      3000   414.15741     -246.74696      36.702008      36.753975      36.652209    
      4000   403.64997      1147.8647      36.705003      36.662473      36.713544    
      5000   399.70982      13.294607      36.648178      36.683562      36.765353    
      6000   407.90215     -560.60988      36.659838      36.812903      36.664134    
      7000   406.53373      31.774937      36.79867       36.631953      36.685742    
      8000   391.69022      1294.4075      36.701166      36.603035      36.784037    
      9000   396.9942       724.43564      36.685254      36.678531      36.740557    
     10000   391.56798     -289.16782      36.707518      36.690902      36.737842    
     11000   398.5802      -1424.8582      36.738034      36.774981      36.665578    
     12000   402.56555     -1831.6919      36.718333      36.718515      36.756868    
     13000   407.88924     -934.95988      36.705531      36.700198      36.761938    
     14000   395.29486      448.36247      36.744935      36.704969      36.666255    
     15000   394.27594     -213.35239      36.682449      36.808257      36.673828    
     16000   401.11081      42.654286      36.676118      36.815217      36.637633    
     17000   404.96871     -1213.5664      36.754925      36.698076      36.751336    
     18000   395.70209     -994.73618      36.714789      36.659034      36.820089    
     19000   407.58419     -669.88393      36.679555      36.76397       36.718238    
     20000   386.79391      806.22328      36.736354      36.661215      36.706598    
     21000   406.8742       333.92292      36.603315      36.715977      36.794803    
     22000   405.44072     -236.24129      36.677031      36.718331      36.742273    
     23000   402.16366     -155.39511      36.783725      36.665165      36.699089    
     24000   410.9247       1181.5811      36.655669      36.737955      36.687102    
     25000   403.46629      235.7812       36.708843      36.668821      36.735558    
     26000   401.14397      498.56598      36.699357      36.673813      36.71723     
     27000   391.46088      791.42217      36.604398      36.757052      36.736735    
     28000   398.3          2665.5196      36.619393      36.694051      36.730862    
     29000   392.79285      1182.5759      36.656636      36.738615      36.68051     
     30000   394.76055      758.87267      36.674633      36.740682      36.695371    
     31000   401.84662     -154.82134      36.766098      36.681687      36.681592    
     32000   393.01954     -703.72247      36.669157      36.78475       36.709123    
     33000   399.09379     -961.99956      36.722322      36.749053      36.671008    
     34000   415.78917      152.34939      36.642998      36.775741      36.67174     
     35000   395.91092      200.98957      36.638063      36.733038      36.711881    
     36000   395.71746     -395.22852      36.645379      36.747839      36.728246    
     37000   411.49311      432.51869      36.706054      36.700565      36.689549    
     38000   409.3647       1385.7996      36.713242      36.673398      36.664837    
     39000   405.26965     -998.21842      36.705861      36.726263      36.698097    
     40000   413.52154      606.91944      36.703238      36.697191      36.684471    
     41000   400.05472     -563.32547      36.65099       36.840192      36.628259    
     42000   399.75457      857.57622      36.684337      36.643986      36.754111    
     43000   405.82421      303.13949      36.731774      36.682419      36.693757    
     44000   397.07714      410.51189      36.731999      36.712137      36.659628    
     45000   407.07922      1931.3096      36.729637      36.686605      36.625275    
     46000   398.4029       668.4752       36.652215      36.665471      36.772843    
     47000   403.69888      985.62053      36.64643       36.733535      36.72579     
     48000   402.77971      622.58749      36.640937      36.6707        36.76961     
     49000   387.43531     -250.51227      36.683278      36.668519      36.770742    
     50000   400.53439     -601.17715      36.646644      36.710432      36.78457     
     51000   399.04625     -748.53847      36.688804      36.707154      36.732076    
     52000   406.56075      70.69582       36.668912      36.780433      36.674201    
     53000   398.40873      1059.089       36.640165      36.647387      36.788861    
     54000   397.68408      1253.1521      36.608457      36.734448      36.742259    
     55000   399.51674      174.12282      36.554572      36.783684      36.764263    
     56000   403.54607      169.55646      36.569714      36.672647      36.865969    
     57000   403.24958     -980.30185      36.632046      36.699467      36.821561    
     58000   400.80493     -755.09248      36.701245      36.779908      36.658643    
     59000   403.98645      380.55308      36.583952      36.753513      36.750407    
     60000   395.34003      810.34534      36.632929      36.698889      36.752996    
     61000   386.06125     -191.98002      36.627627      36.722042      36.7483      
     62000   403.1153       302.6387       36.684927      36.745994      36.665367    
     63000   403.28438      336.34781      36.618933      36.662039      36.812244    
     64000   403.91229     -259.17635      36.671786      36.686156      36.753428    
     65000   395.69389     -500.86366      36.743831      36.671362      36.712842    
     66000   403.83453      842.17112      36.651134      36.685251      36.750075    
     67000   406.35572     -362.76656      36.662315      36.638886      36.832906    
     68000   397.64128      206.07326      36.648045      36.654592      36.798597    
     69000   399.43908      2111.0025      36.676266      36.79289       36.559003    
     70000   412.05062      353.62392      36.676812      36.664578      36.768253    
     71000   403.99706     -575.55846      36.758477      36.713212      36.663803    
     72000   392.41014     -686.39217      36.683551      36.674808      36.75961     
     73000   406.5342       120.27744      36.710197      36.677766      36.727778    
     74000   404.62584      13.640461      36.711731      36.6189        36.776285    
     75000   407.94357      943.82974      36.767475      36.718056      36.596684    
     76000   395.96601     -948.54678      36.790505      36.611357      36.724891    
     77000   403.01318     -950.81146      36.689999      36.70328       36.745584    
     78000   402.73799     -178.93968      36.823837      36.688807      36.59524     
     79000   405.71368      826.73703      36.699499      36.639994      36.72786     
     80000   401.64928     -561.5169       36.592783      36.780244      36.736708    
     81000   403.3812      -1544.9596      36.715621      36.710017      36.763145    
     82000   400.62456     -1221.4485      36.671425      36.727247      36.75324     
     83000   410.20794      1424.7269      36.636577      36.655373      36.735791    
     84000   403.18607      1180.5016      36.629645      36.675241      36.768584    
     85000   404.18541      972.25182      36.699519      36.672285      36.681435    
     86000   401.14005      878.19402      36.610653      36.765336      36.702946    
     87000   391.73064      1481.0805      36.586721      36.652417      36.797849    
     88000   404.3131      -105.4916       36.792008      36.647868      36.669109    
     89000   391.13414     -23.958899      36.559797      36.775424      36.77108     
     90000   406.52453     -843.091        36.716353      36.690992      36.741984    
     91000   403.61864     -815.48077      36.715291      36.66958       36.74796     
     92000   392.01347     -897.55538      36.641913      36.739296      36.784999    
     93000   406.81349     -426.72526      36.739652      36.678766      36.684508    
     94000   407.08004      515.31094      36.679495      36.672555      36.757294    
     95000   402.05102     -112.85223      36.726887      36.598042      36.788555    
     96000   397.72067      626.15039      36.669487      36.665722      36.732131    
     97000   407.71179      2000.7362      36.63096       36.595426      36.816741    
     98000   402.2679       956.39266      36.638629      36.700961      36.711306    
     99000   408.7231       1481.1631      36.70694       36.599656      36.770109    
    100000   407.1802       947.12266      36.703626      36.653806      36.716966    
    101000   391.46614      1312.2324      36.698953      36.677086      36.67998     
    102000   398.5827      -402.92869      36.640483      36.723165      36.762022    
    103000   408.02701     -1692.803       36.740388      36.665552      36.761921    
    104000   399.22527     -1607.0729      36.769405      36.689175      36.704626    
    105000   392.3754       830.57617      36.670165      36.675415      36.736776    
    106000   409.64309      1371.066       36.630574      36.651097      36.785717    
    107000   398.5459       2109.8662      36.729854      36.608925      36.697478    
    108000   393.64217      1628.6723      36.693302      36.619937      36.732757    
    109000   402.81426      1322.414       36.664668      36.71975       36.676045    
    110000   404.50524      727.75054      36.675836      36.622907      36.784791    
    111000   406.70186      276.90468      36.575932      36.702327      36.829391    
    112000   406.30412      185.06875      36.645233      36.750919      36.712705    
    113000   400.33133     -460.60951      36.682398      36.71287       36.739231    
    114000   398.6804      -1077.9024      36.658926      36.645511      36.82237     
    115000   398.64789      259.71992      36.652223      36.660767      36.804591    
    116000   405.78779      714.36785      36.681172      36.710156      36.719889    
    117000   402.9402       842.88753      36.72242       36.636692      36.716353    
    118000   403.20841      867.47619      36.610528      36.633743      36.836564    
    119000   396.36979      1602.8887      36.684268      36.635649      36.737192    
    120000   391.72105      1166.3077      36.615809      36.615601      36.824421    
    121000   392.05644      1354.6939      36.649787      36.64023       36.782961    
    122000   394.12459      438.95719      36.681565      36.670905      36.739126    
    123000   396.09653     -807.79439      36.646637      36.6676        36.803023    
    124000   401.31012     -1106.4247      36.633404      36.712193      36.783798    
    125000   408.33014     -1402.8549      36.692295      36.650563      36.803734    
    126000   386.69733     -2311.3571      36.684565      36.744436      36.752719    
    127000   388.65785     -388.29925      36.667352      36.663957      36.807981    
    128000   400.21506      445.49192      36.518822      36.791668      36.772004    
    129000   398.40543      670.52666      36.622971      36.669325      36.792091    
    130000   409.48687     -135.81978      36.576313      36.694998      36.842559    
    131000   405.75699     -337.71965      36.698319      36.646636      36.78332     
    132000   393.6684      -1111.8055      36.711374      36.659155      36.781044    
    133000   402.13124      821.74239      36.582377      36.656589      36.875632    
    134000   403.13451      558.62067      36.663409      36.627928      36.787164    
    135000   394.03288      1822.6309      36.573999      36.686007      36.77736     
    136000   402.75333      1601.7951      36.51353       36.75096       36.794293    
    137000   392.25553      581.30471      36.633633      36.634088      36.80711     
    138000   404.3637       229.54032      36.622953      36.69254       36.77754     
    139000   408.91601     -456.09107      36.689786      36.590058      36.824827    
    140000   406.02725      422.12384      36.645         36.655589      36.792438    
    141000   398.22793     -69.776176      36.604926      36.754046      36.752881    
    142000   402.1005       819.11855      36.654266      36.696934      36.751919    
    143000   405.18132      124.65789      36.710925      36.636438      36.746613    
    144000   397.94007     -433.9967       36.770463      36.61388       36.740276    
    145000   397.66447     -1329.2366      36.588833      36.662389      36.873943    
    146000   401.00887     -492.7369       36.611327      36.677616      36.82576     
    147000   398.82979      602.86005      36.621771      36.699169      36.760499    
    148000   392.57641      960.79185      36.608235      36.749093      36.712848    
    149000   395.26839     -77.443173      36.678525      36.695883      36.738382    
    150000   400.53662     -1288.6673      36.647303      36.70232       36.826374    
    151000   408.64422     -1069.6052      36.72022       36.656401      36.784816    
    152000   393.55717     -841.08281      36.721742      36.573092      36.860241    
    153000   393.91591      862.22102      36.705082      36.657101      36.733649    
    154000   405.61702      935.34436      36.604759      36.646218      36.811079    
    155000   393.4469       824.2488       36.671618      36.608895      36.805054    
    156000   408.39097     -727.9056       36.749767      36.56464       36.803308    
    157000   396.55067      1636.2889      36.64413       36.672113      36.74065     
    158000   409.2644       1044.4423      36.704323      36.602723      36.758108    
    159000   401.4817      -240.32548      36.7337        36.738481      36.63179     
    160000   401.87396      418.05444      36.73232       36.655114      36.733491    
    161000   401.33376      876.15659      36.659205      36.710954      36.720625    
    162000   406.16918     -1283.0499      36.698865      36.73851       36.741482    
    163000   413.51777     -709.9985       36.649077      36.73631       36.738114    
    164000   403.62487      138.84996      36.677384      36.639202      36.779025    
    165000   401.15024     -276.6071       36.734403      36.702616      36.688158    
    166000   397.86987     -851.61781      36.681735      36.786629      36.703319    
    167000   400.23175     -17.056917      36.774656      36.711402      36.643077    
    168000   404.99871      469.45052      36.611145      36.680775      36.789107    
    169000   399.03224      1848.3703      36.658766      36.713829      36.669907    
    170000   395.46613      1286.5878      36.690448      36.662827      36.724817    
    171000   401.61052      542.32865      36.713804      36.692686      36.654919    
    172000   402.59369      1697.0019      36.671463      36.745872      36.626136    
    173000   391.60449      792.71267      36.709754      36.701351      36.689623    
    174000   397.59789      426.07551      36.787288      36.682332      36.660476    
    175000   392.31807     -279.26319      36.70008       36.723911      36.718606    
    176000   407.95947     -271.48865      36.710472      36.750266      36.676468    
    177000   398.66831     -442.27937      36.703595      36.712668      36.722646    
    178000   405.19421     -531.59794      36.674053      36.698212      36.782662    
    179000   404.06962     -2134.8053      36.654948      36.807497      36.732087    
    180000   395.61165     -1913.2084      36.737324      36.715294      36.753604    
    181000   396.52334     -839.77189      36.648457      36.775966      36.729405    
    182000   391.54323      675.25203      36.624082      36.748059      36.715542    
    183000   407.89692      566.91169      36.71204       36.663579      36.701576    
    184000   395.7802      -455.07308      36.754108      36.732362      36.655125    
    185000   397.02488     -1863.3258      36.668218      36.755543      36.746926    
    186000   399.76099     -1635.4789      36.62532       36.793964      36.755089    
    187000   401.47135      438.82385      36.725291      36.740298      36.637337    
    188000   401.77253      1194.2112      36.642604      36.689977      36.751924    
    189000   407.24829      1661.849       36.722677      36.763397      36.593759    
    190000   403.7578      -1104.4203      36.707748      36.692378      36.743253    
    191000   384.85597     -1577.1605      36.679892      36.743039      36.73622     
    192000   390.66208     -1127.6853      36.770945      36.763266      36.63416     
    193000   395.46625     -1285.967       36.682727      36.747452      36.742741    
    194000   404.38591     -696.8791       36.749541      36.780266      36.628184    
    195000   390.2469      -685.67079      36.693963      36.702187      36.758025    
    196000   396.46427     -498.61285      36.756766      36.765787      36.613841    
    197000   394.67188     -536.33327      36.553156      36.848555      36.725576    
    198000   398.34012      524.88227      36.644421      36.734768      36.701969    
    199000   410.04894      615.99334      36.665239      36.694252      36.737094    
    200000   402.12768      1406.8465      36.605002      36.769696      36.692596    
    201000   398.37857      1148.9032      36.73384       36.740948      36.5739      
    202000   399.15736      496.4766       36.694991      36.717572      36.684728    
    203000   395.5417      -26.425679      36.721546      36.744701      36.63952     
    204000   397.35308      783.28914      36.635234      36.687599      36.753338    
    205000   398.97308      1069.195       36.763159      36.712091      36.575155    
    206000   404.25156      774.23825      36.696411      36.710638      36.660454    
    207000   399.40323      1615.2212      36.745454      36.753626      36.557247    
    208000   389.55228      1485.2942      36.678194      36.684863      36.692131    
    209000   395.15295      1225.8541      36.674974      36.776717      36.636706    
    210000   400.81894      444.0838       36.658009      36.764465      36.674615    
    211000   402.91783      184.89581      36.720161      36.669577      36.710602    
    212000   393.66133     -149.25551      36.703941      36.77518       36.620424    
    213000   399.82994      481.02052      36.769124      36.695188      36.64202     
    214000   402.16548      210.73698      36.713465      36.732486      36.672523    
    215000   397.51857      230.85492      36.671381      36.788115      36.631028    
    216000   393.36709      634.54359      36.682546      36.756381      36.649562    
    217000   391.2773       154.40059      36.750074      36.732469      36.630592    
    218000   397.82478     -24.357039      36.655701      36.738308      36.694052    
    219000   413.22499      636.92115      36.716128      36.755585      36.611852    
    220000   403.1016       550.97988      36.722256      36.666904      36.701746    
    221000   394.70396     -941.45377      36.722429      36.695014      36.721129    
    222000   403.29002     -1571.2767      36.768309      36.763141      36.663001    
    223000   394.11771      1216.5634      36.720256      36.71059       36.630488    
    224000   413.36181      1479.1364      36.679868      36.748643      36.651759    
    225000   413.5379       2243.9857      36.695677      36.657279      36.641082    
    226000   409.88119      1539.349       36.70484       36.656427      36.68104     
    227000   398.56142     -504.00905      36.635732      36.794096      36.690429    
    228000   404.65606     -854.85642      36.704994      36.716972      36.715765    
    229000   396.64784     -1306.559       36.70317       36.768896      36.686117    
    230000   392.77882     -2129.8691      36.723397      36.798861      36.666237    
    231000   405.70895     -2037.8901      36.725114      36.779436      36.673976    
    232000   399.48158     -336.94053      36.768225      36.657051      36.714244    
    233000   396.81524      56.21767       36.776936      36.690965      36.612377    
    234000   388.73427     -361.46006      36.649837      36.734615      36.689535    
    235000   404.33369      153.47989      36.667371      36.738885      36.702529    
    236000   402.51668     -545.96327      36.714578      36.734486      36.664186    
    237000   403.53854     -1030.5059      36.777883      36.721518      36.675771    
    238000   400.03064      133.03186      36.725465      36.763979      36.615462    
    239000   397.22476     -1811.9565      36.741288      36.735131      36.696417    
    240000   404.41101     -79.453422      36.718666      36.75343       36.643942    
    241000   401.27024      1724.5107      36.791993      36.619204      36.628402    
    242000   400.10745      42.009692      36.702212      36.73153       36.661979    
    243000   401.78571      694.41658      36.706834      36.707576      36.65149     
    244000   403.62689      1719.2625      36.72195       36.737548      36.595191    
    245000   387.077        805.34737      36.689542      36.721251      36.617668    
    246000   400.32864      606.83803      36.69479       36.760891      36.61533     
    247000   390.04233      809.15688      36.660237      36.736076      36.646103    
    248000   405.23241      191.48905      36.790142      36.720963      36.572641    
    249000   394.60262      390.43929      36.747662      36.778858      36.547026    
    250000   401.74815      783.58294      36.693737      36.696414      36.694657    
    251000   401.68164      75.676775      36.752222      36.741683      36.593587    
    252000   395.85252     -172.7055       36.710904      36.747522      36.626089    
    253000   418.93313      721.11932      36.635121      36.748719      36.665719    
    254000   401.40704      1052.9398      36.721733      36.659509      36.666657    
    255000   410.10091     -739.7466       36.74193       36.765833      36.620748    
    256000   402.76212      473.165        36.744479      36.624476      36.713322    
    257000   391.25063      662.60945      36.750177      36.784678      36.52514     
    258000   398.47029      1243.659       36.695803      36.735854      36.620424    
    259000   405.15702      1491.1314      36.628486      36.730465      36.71869     
    260000   393.67497     -269.02361      36.742152      36.695023      36.692223    
    261000   405.20363     -1025.7442      36.624945      36.859798      36.666034    
    262000   392.00847     -755.4394       36.728917      36.733331      36.669224    
    263000   393.32336     -506.25012      36.763193      36.799505      36.565865    
    264000   395.42908     -186.10752      36.733269      36.771379      36.585071    
    265000   396.13675      154.96474      36.707354      36.723137      36.656722    
    266000   392.03945      922.40049      36.807393      36.659727      36.583124    
    267000   405.62102     -941.5153       36.830216      36.683428      36.607837    
    268000   393.9981      -429.79698      36.821335      36.624171      36.649128    
    269000   402.14514     -946.82469      36.792206      36.676038      36.665045    
    270000   400.37785     -786.3282       36.7335        36.803237      36.583283    
    271000   392.49563     -752.8697       36.767008      36.723413      36.624922    
    272000   396.41193      424.29718      36.6908        36.769387      36.606584    
    273000   395.36467      1472.5722      36.775296      36.71047       36.557963    
    274000   394.04836      772.37983      36.708824      36.78449       36.579436    
    275000   390.37977     -317.78513      36.746384      36.794055      36.553862    
    276000   397.32218     -1939.5898      36.751029      36.759325      36.655517    
    277000   401.11295     -1861.272       36.796565      36.72274       36.64525     
    278000   390.69607     -1780.2789      36.735227      36.785587      36.642386    
    279000   392.53109      473.36063      36.796189      36.70783       36.574987    
    280000   394.05006      642.53855      36.738078      36.700661      36.645863    
    281000   407.87162      508.96531      36.707491      36.739277      36.617716    
    282000   404.8744       1222.5091      36.732091      36.697753      36.600063    
    283000   392.92064      1311.1276      36.707964      36.786121      36.57781     
    284000   406.62633     -671.42202      36.745664      36.775396      36.595298    
    285000   403.21279      139.03696      36.709759      36.728652      36.643295    
    286000   410.82261      723.23627      36.812404      36.672592      36.570563    
    287000   393.95434      1920.2382      36.671199      36.727679      36.630784    
    288000   385.08859      1868.685       36.695259      36.745111      36.583868    
    289000   396.13557      1002.3914      36.62051       36.798985      36.655184    
    290000   399.68323      1412.8749      36.73246       36.661438      36.637815    
    291000   408.37061      927.98237      36.741054      36.681355      36.639834    
    292000   400.67918      1496.5896      36.746203      36.699139      36.591999    
    293000   406.36865      2222.0301      36.743548      36.683678      36.5901      
    294000   401.91599      4246.6822      36.623192      36.77905       36.539034    
    295000   402.92364      1621.1282      36.677128      36.739374      36.627785    
    296000   406.52481      224.40778      36.743244      36.74377       36.611313    
    297000   389.94959      351.917        36.775361      36.641309      36.664532    
    298000   388.61218     -542.00428      36.716771      36.759629      36.597211    
    299000   401.90321     -91.87552       36.826427      36.747758      36.528773    
    300000   388.2507      -2485.1925      36.764795      36.772209      36.651244    
    301000   405.07597     -2018.1515      36.749984      36.835246      36.595111    
    302000   399.22211     -760.55061      36.753991      36.77438       36.604691    
    303000   387.8586      -1572.469       36.698119      36.802674      36.645612    
    304000   400.17958     -91.105789      36.74789       36.793344      36.570292    
    305000   400.46752     -1094.2684      36.773162      36.78712       36.591411    
    306000   394.29768     -3166.01        36.780367      36.763246      36.681425    
    307000   395.50999     -661.08811      36.785195      36.697212      36.635839    
    308000   406.12464     -469.18067      36.751016      36.724821      36.634694    
    309000   407.33998      226.87688      36.727059      36.760863      36.584386    
    310000   402.63034      259.66621      36.729135      36.742314      36.610918    
    311000   400.31569      935.16014      36.779809      36.725271      36.57631     
    312000   406.58457     -1117.4479      36.777772      36.689022      36.648276    
    313000   394.07737     -286.63884      36.674897      36.815364      36.613654    
    314000   397.45734      593.29024      36.791919      36.678594      36.600187    
    315000   399.69653     -9.2371144      36.752212      36.7795        36.553225    
    316000   401.26259      190.25695      36.762242      36.728076      36.576535    
    317000   403.85539      109.75205      36.748185      36.690472      36.617211    
    318000   406.56969     -323.55736      36.786241      36.673315      36.635245    
    319000   394.58387     -99.681179      36.871648      36.71914       36.485379    
    320000   389.42003      880.708        36.804677      36.67248       36.576376    
    321000   402.42318     -694.25329      36.739995      36.732967      36.66133     
    322000   409.92048     -112.89668      36.806472      36.679189      36.602911    
    323000   398.09844     -565.19952      36.824348      36.698131      36.573117    
    324000   403.41968     -869.64205      36.737047      36.66455       36.708204    
    325000   397.73292     -39.58105       36.774522      36.714714      36.593802    
    326000   394.41039      674.55055      36.754345      36.69716       36.591944    
    327000   400.83023      2687.7132      36.781246      36.665319      36.56238     
    328000   400.97619      2061.1459      36.72486       36.714584      36.582795    
    329000   405.87422     -40.336257      36.782817      36.730126      36.573983    
    330000   390.5728      -312.50491      36.776874      36.669547      36.619231    
    331000   390.3949      -855.99906      36.781914      36.701648      36.616527    
    332000   405.39323     -736.0901       36.848596      36.658084      36.591335    
    333000   405.08677     -30.253062      36.90385       36.643075      36.575834    
    334000   401.61612      743.56416      36.721941      36.673975      36.657679    
    335000   392.93953      248.77877      36.827933      36.611872      36.631594    
    336000   408.08119      248.35906      36.748946      36.752706      36.557052    
    337000   397.41904      1967.587       36.670762      36.700697      36.670429    
    338000   394.43444      507.30545      36.802498      36.666779      36.585226    
    339000   399.41998     -51.800491      36.739816      36.687531      36.681709    
    340000   398.57584      1191.1603      36.785709      36.727777      36.540859    
    341000   393.19748      558.42537      36.772722      36.725895      36.549172    
    342000   403.28539      220.45736      36.75918       36.738037      36.587957    
    343000   397.31556      430.84798      36.69109       36.734382      36.63593     
    344000   388.27918     -1420.729       36.795231      36.751816      36.584966    
    345000   405.18301     -1837.2688      36.785431      36.734162      36.63423     
    346000   392.52812     -763.26966      36.905739      36.656904      36.571342    
    347000   395.1239      -1790.4026      36.838409      36.70174       36.617303    
    348000   398.56842     -2227.6435      36.874702      36.708176      36.580907    
    349000   402.53138     -196.90209      36.845703      36.706212      36.559348    
    350000   402.71085     -50.671033      36.751044      36.686337      36.672919    
    351000   400.16118     -702.41678      36.778636      36.669445      36.650644    
    352000   404.63737      887.76734      36.818374      36.675811      36.585406    
    353000   393.77473      2369.6737      36.681619      36.705538      36.617961    
    354000   393.94071      1407.0973      36.750937      36.646694      36.64184     
    355000   408.83553      506.77145      36.606854      36.829417      36.649448    
    356000   392.35997      935.11802      36.735313      36.745545      36.580256    
    357000   403.21291      1054.1021      36.731642      36.757791      36.577305    
    358000   403.78148      517.34306      36.713336      36.843855      36.523276    
    359000   393.51663      1105.7793      36.75855       36.698553      36.604659    
    360000   387.57687     -443.94695      36.798898      36.712245      36.591139    
    361000   396.87504      310.82736      36.637038      36.760334      36.698806    
    362000   403.58414     -695.76128      36.795253      36.733137      36.61356     
    363000   402.89404     -477.52059      36.792739      36.773853      36.550254    
    364000   388.43547      714.38714      36.756844      36.733803      36.579945    
    365000   405.70032      1143.8071      36.771239      36.673905      36.627362    
    366000   398.38416     -292.35297      36.720887      36.776055      36.594021    
    367000   405.49061     -515.45499      36.74217       36.761891      36.622865    
    368000   401.97994     -80.140704      36.681125      36.784104      36.637448    
    369000   407.57842      341.83485      36.807617      36.740643      36.542109    
    370000   403.28871      707.89594      36.773659      36.79547       36.515235    
    371000   397.43763      1193.8615      36.766087      36.71024       36.593544    
    372000   396.03064      468.68648      36.743484      36.786088      36.552051    
    373000   412.71344      34.593836      36.825747      36.636433      36.609687    
    374000   408.19286     -655.71525      36.708003      36.792428      36.621811    
    375000   393.72378     -471.71062      36.727457      36.71841       36.668306    
    376000   398.81539      1106.4879      36.711225      36.758024      36.578158    
    377000   395.82787     -370.20988      36.776529      36.768219      36.55475     
    378000   387.11281     -885.93317      36.727355      36.764893      36.636808    
    379000   383.64131     -1657.6612      36.76608       36.792467      36.602767    
    380000   402.64874     -593.25965      36.812785      36.719861      36.591921    
    381000   400.74078      491.70236      36.744703      36.729552      36.597507    
    382000   405.63416      782.2195       36.72683       36.850288      36.463493    
    383000   391.22838     -732.65552      36.738889      36.751301      36.633113    
    384000   398.15977     -888.20099      36.802801      36.804929      36.518227    
    385000   400.97624      431.50191      36.756649      36.79358       36.531585    
    386000   399.66288     -84.359928      36.812683      36.736981      36.539982    
    387000   408.7567      -552.6343       36.725346      36.78888       36.602906    
    388000   404.55533     -1309.3676      36.778793      36.782634      36.60967     
    389000   393.05002     -1404.2846      36.787341      36.791763      36.556233    
    390000   395.27479     -113.06921      36.760337      36.793484      36.51942     
    391000   412.3109       1425.4619      36.750685      36.770933      36.516315    
    392000   402.19855      2045.8341      36.688351      36.733168      36.565943    
    393000   398.94066      878.7504       36.743314      36.718268      36.601131    
    394000   399.1989       647.43199      36.777311      36.783173      36.518353    
    395000   399.18315     -1253.6772      36.800189      36.78589       36.575057    
    396000   390.27858     -357.93456      36.726779      36.819631      36.564116    
    397000   406.05986     -430.36446      36.67329       36.765078      36.670074    
    398000   398.98517     -114.05581      36.745668      36.750789      36.591918    
    399000   397.43616     -798.9591       36.815312      36.653626      36.670808    
    400000   399.57782      1080.5824      36.686154      36.794553      36.582961    
    401000   395.69621     -734.96448      36.799807      36.792115      36.515548    
    402000   405.45927      1260.2192      36.737316      36.727939      36.581258    
    403000   401.89336      2325.5512      36.679596      36.746589      36.573074    
    404000   406.29789      1855.4195      36.767747      36.707701      36.543223    
    405000   399.76338      1437.1182      36.750448      36.797471      36.493028    
    406000   393.81658     -1196.9876      36.624238      36.880509      36.633294    
    407000   401.28248     -1089.2667      36.788314      36.757334      36.58646     
    408000   398.57511     -1725.681       36.761711      36.81969       36.584365    
    409000   393.68289      193.99297      36.736214      36.697743      36.618761    
    410000   404.14887      310.69655      36.732266      36.72558       36.613972    
    411000   408.77143      271.7387       36.711372      36.729542      36.6176      
    412000   388.84181     -1051.914       36.678884      36.790354      36.653507    
    413000   392.55701     -156.57952      36.736216      36.725372      36.655438    
    414000   405.32337      132.51892      36.747561      36.770195      36.560821    
    415000   410.05859      25.628248      36.823499      36.730203      36.529598    
    416000   397.32685      1549.7257      36.711104      36.745362      36.560317    
    417000   403.86242      1622.3892      36.743599      36.723374      36.547198    
    418000   403.63955      3190.679       36.677073      36.713021      36.559391    
    419000   405.10289     -559.64265      36.722067      36.792102      36.608587    
    420000   400.54566     -1159.9214      36.823319      36.741756      36.571655    
    421000   395.91943     -23.221074      36.659924      36.835566      36.595975    
    422000   397.52944      1945.8718      36.759923      36.740535      36.508614    
    423000   399.21486      1991.424       36.724376      36.741145      36.528338    
    424000   406.57914      258.65163      36.789877      36.747896      36.526317    
    425000   404.90328      485.24117      36.838531      36.747166      36.480296    
    426000   403.40741     -686.2407       36.848695      36.682931      36.59375     
    427000   407.67714     -405.89011      36.776654      36.745882      36.594412    
    428000   404.1566      -850.68849      36.831724      36.774581      36.532677    
    429000   395.4168      -1575.6183      36.755736      36.794422      36.602358    
    430000   384.04334     -453.14329      36.73181       36.777531      36.596557    
    431000   397.57597     -759.65792      36.703327      36.835534      36.598652    
    432000   396.11596     -490.34234      36.744698      36.75289       36.578279    
    433000   404.54174      1271.3264      36.726214      36.719815      36.583736    
    434000   402.46466      962.3981       36.65914       36.771479      36.608441    
    435000   404.73974      1454.7343      36.714588      36.683843      36.627458    
    436000   404.33994      1197.1573      36.712995      36.696979      36.632364    
    437000   406.93678      470.6732       36.695683      36.892468      36.470658    
    438000   401.06018     -489.14374      36.79032       36.697203      36.599861    
    439000   399.75211     -1038.235       36.718418      36.79611       36.598297    
    440000   407.86057     -565.36581      36.780647      36.787607      36.531238    
    441000   387.70927     -120.1247       36.760996      36.794659      36.522067    
    442000   395.76506      1953.58        36.713534      36.798931      36.500119    
    443000   393.66779      431.70686      36.771776      36.651271      36.642039    
    444000   399.52994      285.82785      36.765146      36.754668      36.556831    
    445000   404.06599     -757.71357      36.839592      36.716961      36.564811    
    446000   396.72451     -377.98708      36.777273      36.661271      36.628987    
    447000   403.41458      341.70581      36.796651      36.681896      36.586976    
    448000   402.64375      1913.5262      36.782879      36.742546      36.513373    
    449000   401.49401      779.79866      36.650573      36.689979      36.713881    
    450000   398.6277       559.65136      36.716942      36.714693      36.621614    
    451000   413.45443      521.6461       36.745899      36.670945      36.652598    
    452000   404.04696     -37.280705      36.767517      36.76503       36.56554     
    453000   405.72321     -544.34787      36.812628      36.689946      36.6126      
    454000   395.96963      233.67524      36.72781       36.817442      36.535748    
    455000   396.26245      695.6515       36.766275      36.746972      36.539962    
    456000   392.38228      855.63154      36.774902      36.734468      36.541637    
    457000   399.70464      585.67609      36.782895      36.751211      36.522172    
    458000   404.21831      1131.6067      36.729471      36.752945      36.542923    
    459000   395.63805      2084.962       36.774853      36.723432      36.502532    
    460000   397.89642      660.33915      36.780314      36.710964      36.562377    
    461000   393.79408     -1323.432       36.711937      36.787962      36.611811    
    462000   397.11479     -1497.6436      36.837159      36.697924      36.609875    
    463000   405.5155      -566.43929      36.80069       36.739307      36.560062    
    464000   394.42275     -489.83711      36.849151      36.643278      36.570629    
    465000   400.95525     -504.57004      36.813256      36.747586      36.529659    
    466000   390.57003     -1152.143       36.765748      36.816269      36.534762    
    467000   395.65902     -2437.7186      36.893985      36.735406      36.555129    
    468000   402.79558     -868.88266      36.749302      36.747575      36.605861    
    469000   394.03763     -1423.0027      36.78568       36.739003      36.579854    
    470000   402.69339     -641.33571      36.718374      36.794662      36.599544    
    471000   404.60671     -449.9265       36.755326      36.779306      36.590283    
    472000   397.74392      1893.2631      36.776143      36.787577      36.442412    
    473000   404.11767      2260.7905      36.856344      36.680576      36.459308    
    474000   407.82574      1630.5721      36.785949      36.710198      36.542856    
    475000   406.09992      851.80166      36.767826      36.754437      36.524269    
    476000   408.51437      537.59216      36.76428       36.7439        36.565449    
    477000   400.34177     -1338.4962      36.868721      36.760045      36.500183    
    478000   394.24991     -1562.5012      36.747457      36.759307      36.625269    
    479000   399.83251     -824.02559      36.80699       36.750334      36.579165    
    480000   407.3354      -2810.212       36.727496      36.747909      36.699423    
    481000   392.81585     -329.10315      36.76008       36.782263      36.577248    
    482000   401.41418     -742.93783      36.768637      36.75706       36.579205    
    483000   407.4717       810.1423       36.716141      36.79611       36.553537    
    484000   400.03266      956.68109      36.762086      36.743521      36.555187    
    485000   393.00782     -1453.217       36.749239      36.77912       36.599834    
    486000   399.51853     -227.59461      36.721091      36.720165      36.644657    
    487000   404.72752      74.249736      36.767379      36.648622      36.644668    
    488000   407.20518      769.00408      36.737441      36.769931      36.538671    
    489000   408.7911       1649.0125      36.743164      36.745087      36.522143    
    490000   402.58746      1742.7629      36.665459      36.730951      36.621483    
    491000   401.4048       1681.2218      36.771674      36.728753      36.52081     
    492000   396.03524      1547.4195      36.820131      36.704654      36.495894    
    493000   399.48887      532.43764      36.758597      36.70997       36.589184    
    494000   397.55257      287.63575      36.825172      36.782448      36.478134    
    495000   398.08871      902.39202      36.839464      36.655013      36.5343      
    496000   412.17725      1014.443       36.824452      36.714462      36.533981    
    497000   399.55464      1169.7365      36.921591      36.622972      36.481356    
    498000   395.95775      775.69777      36.755227      36.786107      36.502117    
    499000   405.94242      2572.2876      36.756298      36.685788      36.5554      
    500000   389.28875      1448.1404      36.73899       36.796708      36.502917    
Loop time of 178.199 on 40 procs for 500000 steps with 2592 atoms

Performance: 242.426 ns/day, 0.099 hours/ns, 2805.856 timesteps/s, 7.273 Matom-step/s
91.3% CPU use with 40 MPI tasks x no OpenMP threads

MPI task timing breakdown:
Section |  min time  |  avg time  |  max time  |%varavg| %total
---------------------------------------------------------------
Pair    | 46.163     | 51.715     | 56.977     |  35.9 | 29.02
Neigh   | 5.3516     | 5.7692     | 6.3001     |   9.4 |  3.24
Comm    | 77.284     | 81.331     | 86.892     |  26.9 | 45.64
Output  | 0.013605   | 0.01435    | 0.021568   |   1.0 |  0.01
Modify  | 30.401     | 32.49      | 34.768     |  24.6 | 18.23
Other   |            | 6.88       |            |       |  3.86

Nlocal:           64.8 ave          73 max          55 min
Histogram: 1 2 1 8 7 5 2 6 6 2
Nghost:        1616.22 ave        1675 max        1572 min
Histogram: 7 4 3 7 4 3 4 3 1 4
Neighs:        7753.45 ave        8861 max        6605 min
Histogram: 2 5 4 5 3 6 3 5 3 4

Total # of neighbors = 310138
Ave neighs/atom = 119.65201
Neighbor list builds = 26602
Dangerous builds = 0
Generated 0 of 1 mixed pair_coeff terms from geometric mixing rule
Setting up Verlet run ...
  Unit style    : metal
  Current step  : 500000
  Time step     : 0.001
Per MPI rank memory allocation (min/avg/max) = 3.124 | 3.129 | 3.132 Mbytes
   Step          Temp          Press            Lx             Ly             Lz      
    500000   389.28875      1448.1404      36.73899       36.796708      36.502917    
    501000   412.42838      933.69846      36.73899       36.796708      36.502917    
    502000   391.64801      1439.4183      36.73899       36.796708      36.502917    
    503000   388.98461      1630.5039      36.73899       36.796708      36.502917    
    504000   402.58225      1539.5643      36.73899       36.796708      36.502917    
    505000   396.7596       1094.1665      36.73899       36.796708      36.502917    
    506000   398.78936      1014.3464      36.73899       36.796708      36.502917    
    507000   403.7421       668.73853      36.73899       36.796708      36.502917    
    508000   405.92683      1520.8592      36.73899       36.796708      36.502917    
    509000   394.21928      1005.2423      36.73899       36.796708      36.502917    
    510000   401.23824      1003.9224      36.73899       36.796708      36.502917    
    511000   400.09449      675.11394      36.73899       36.796708      36.502917    
    512000   398.57651      834.65289      36.73899       36.796708      36.502917    
    513000   396.91879      1420.5665      36.73899       36.796708      36.502917    
    514000   401.96583      1271.3164      36.73899       36.796708      36.502917    
    515000   397.763        670.3506       36.73899       36.796708      36.502917    
    516000   398.24587      1318.8141      36.73899       36.796708      36.502917    
    517000   394.94659      1104.9499      36.73899       36.796708      36.502917    
    518000   394.44502      1398.8871      36.73899       36.796708      36.502917    
    519000   405.1867       919.65812      36.73899       36.796708      36.502917    
    520000   410.97679      1374.724       36.73899       36.796708      36.502917    
    521000   399.17845      783.36734      36.73899       36.796708      36.502917    
    522000   402.96926      1386.0574      36.73899       36.796708      36.502917    
    523000   396.55313      1361.7693      36.73899       36.796708      36.502917    
    524000   394.87224      926.4978       36.73899       36.796708      36.502917    
    525000   406.08732      1148.5571      36.73899       36.796708      36.502917    
    526000   402.29801      680.90235      36.73899       36.796708      36.502917    
    527000   405.24617      1041.6495      36.73899       36.796708      36.502917    
    528000   404.89627      572.88085      36.73899       36.796708      36.502917    
    529000   394.14452      1428.5049      36.73899       36.796708      36.502917    
    530000   399.85973      883.295        36.73899       36.796708      36.502917    
    531000   406.29443      952.43172      36.73899       36.796708      36.502917    
    532000   401.11889      736.35709      36.73899       36.796708      36.502917    
    533000   399.26789      640.37704      36.73899       36.796708      36.502917    
    534000   395.4225       458.40647      36.73899       36.796708      36.502917    
    535000   394.2808       1037.2532      36.73899       36.796708      36.502917    
    536000   393.17282      998.05074      36.73899       36.796708      36.502917    
    537000   411.1613       1906.3536      36.73899       36.796708      36.502917    
    538000   394.07759      1793.4125      36.73899       36.796708      36.502917    
    539000   404.76442      1349.876       36.73899       36.796708      36.502917    
    540000   396.6446       1361.3267      36.73899       36.796708      36.502917    
    541000   394.75392      491.81228      36.73899       36.796708      36.502917    
    542000   406.76506      1568.8374      36.73899       36.796708      36.502917    
    543000   397.88412      1855.6666      36.73899       36.796708      36.502917    
    544000   393.82127      1314.9626      36.73899       36.796708      36.502917    
    545000   401.01665      814.13724      36.73899       36.796708      36.502917    
    546000   392.53635      732.93236      36.73899       36.796708      36.502917    
    547000   394.31109      945.90753      36.73899       36.796708      36.502917    
    548000   406.18162      1348.3295      36.73899       36.796708      36.502917    
    549000   405.53551      917.51033      36.73899       36.796708      36.502917    
    550000   394.09474      971.78885      36.73899       36.796708      36.502917    
    551000   401.27221      1017.6196      36.73899       36.796708      36.502917    
    552000   411.29107      1619.2094      36.73899       36.796708      36.502917    
    553000   399.08756      1476.5017      36.73899       36.796708      36.502917    
    554000   405.84076      1088.4075      36.73899       36.796708      36.502917    
    555000   400.24649      777.05767      36.73899       36.796708      36.502917    
    556000   392.71705      1228.4014      36.73899       36.796708      36.502917    
    557000   400.08398      914.46194      36.73899       36.796708      36.502917    
    558000   405.11303      1514.3499      36.73899       36.796708      36.502917    
    559000   398.83072      827.67987      36.73899       36.796708      36.502917    
    560000   390.15848      1625.3307      36.73899       36.796708      36.502917    
    561000   404.43412      1760.3697      36.73899       36.796708      36.502917    
    562000   395.37805      795.20427      36.73899       36.796708      36.502917    
    563000   393.02602      1100.9018      36.73899       36.796708      36.502917    
    564000   402.94067      1494.9243      36.73899       36.796708      36.502917    
    565000   389.65096      796.39487      36.73899       36.796708      36.502917    
    566000   400.99481      1318.4542      36.73899       36.796708      36.502917    
    567000   405.89915      1067.3756      36.73899       36.796708      36.502917    
    568000   412.79869      1025.6753      36.73899       36.796708      36.502917    
    569000   396.59667      1275.4428      36.73899       36.796708      36.502917    
    570000   408.38705      1464.2157      36.73899       36.796708      36.502917    
    571000   398.90686      800.83097      36.73899       36.796708      36.502917    
    572000   403.99266      1119.3697      36.73899       36.796708      36.502917    
    573000   405.27859      1446.971       36.73899       36.796708      36.502917    
    574000   407.58879      1624.3666      36.73899       36.796708      36.502917    
    575000   399.57294      1704.8684      36.73899       36.796708      36.502917    
    576000   395.60785      537.22609      36.73899       36.796708      36.502917    
    577000   404.23543      1489.2927      36.73899       36.796708      36.502917    
    578000   406.52776      1483.3275      36.73899       36.796708      36.502917    
    579000   393.84061      1586.1193      36.73899       36.796708      36.502917    
    580000   402.09793      1687.6089      36.73899       36.796708      36.502917    
    581000   390.826        1346.5831      36.73899       36.796708      36.502917    
    582000   402.88647      1359.3806      36.73899       36.796708      36.502917    
    583000   397.81977      401.12999      36.73899       36.796708      36.502917    
    584000   394.28151      950.6137       36.73899       36.796708      36.502917    
    585000   388.8312       1389.1757      36.73899       36.796708      36.502917    
    586000   399.15755      1975.3733      36.73899       36.796708      36.502917    
    587000   411.75909      1501.9474      36.73899       36.796708      36.502917    
    588000   397.78468      852.81984      36.73899       36.796708      36.502917    
    589000   393.5155       1221.8449      36.73899       36.796708      36.502917    
    590000   393.0109       1631.7545      36.73899       36.796708      36.502917    
    591000   411.11779      1259.6929      36.73899       36.796708      36.502917    
    592000   396.946        936.34411      36.73899       36.796708      36.502917    
    593000   399.39574      1369.5281      36.73899       36.796708      36.502917    
    594000   410.08394      1432.1083      36.73899       36.796708      36.502917    
    595000   407.57491      1282.0428      36.73899       36.796708      36.502917    
    596000   402.12225      1162.8383      36.73899       36.796708      36.502917    
    597000   412.88868      1346.0562      36.73899       36.796708      36.502917    
    598000   404.73344      1005.6793      36.73899       36.796708      36.502917    
    599000   401.28011      1220.9047      36.73899       36.796708      36.502917    
    600000   398.68075      1385.0462      36.73899       36.796708      36.502917    
    601000   388.23245      1078.354       36.73899       36.796708      36.502917    
    602000   397.9006       1215.2464      36.73899       36.796708      36.502917    
    603000   400.28419      1388.4569      36.73899       36.796708      36.502917    
    604000   396.62459      1339.8571      36.73899       36.796708      36.502917    
    605000   400.48918      1238.8269      36.73899       36.796708      36.502917    
    606000   417.74011      1329.734       36.73899       36.796708      36.502917    
    607000   394.89466      1025.4023      36.73899       36.796708      36.502917    
    608000   390.86974      1483.0229      36.73899       36.796708      36.502917    
    609000   393.95282      1183.4597      36.73899       36.796708      36.502917    
    610000   390.13311      1728.7431      36.73899       36.796708      36.502917    
    611000   390.20971      1729.553       36.73899       36.796708      36.502917    
    612000   407.25943      1184.816       36.73899       36.796708      36.502917    
    613000   397.45854      308.66438      36.73899       36.796708      36.502917    
    614000   401.11091      1711.788       36.73899       36.796708      36.502917    
    615000   391.38109      1123.5789      36.73899       36.796708      36.502917    
    616000   399.66251      1183.6134      36.73899       36.796708      36.502917    
    617000   404.77922      1258.1475      36.73899       36.796708      36.502917    
    618000   385.20981      1658.025       36.73899       36.796708      36.502917    
    619000   399.93299      559.74927      36.73899       36.796708      36.502917    
    620000   381.17148      1332.0609      36.73899       36.796708      36.502917    
    621000   401.53585      1914.4373      36.73899       36.796708      36.502917    
    622000   397.80537      1326.2969      36.73899       36.796708      36.502917    
    623000   397.58247      1028.6118      36.73899       36.796708      36.502917    
    624000   402.55143      1809.6288      36.73899       36.796708      36.502917    
    625000   400.32925      1557.3854      36.73899       36.796708      36.502917    
    626000   398.3916       453.29861      36.73899       36.796708      36.502917    
    627000   389.09536      842.67065      36.73899       36.796708      36.502917    
    628000   400.70151      906.39491      36.73899       36.796708      36.502917    
    629000   403.4326       1326.5256      36.73899       36.796708      36.502917    
    630000   402.16523      513.36707      36.73899       36.796708      36.502917    
    631000   399.05479      952.4001       36.73899       36.796708      36.502917    
    632000   415.12374      962.84846      36.73899       36.796708      36.502917    
    633000   396.80236      853.9237       36.73899       36.796708      36.502917    
    634000   413.66809      1548.8806      36.73899       36.796708      36.502917    
    635000   390.32323      1344.237       36.73899       36.796708      36.502917    
    636000   405.86087      668.87664      36.73899       36.796708      36.502917    
    637000   397.30462      1291.6901      36.73899       36.796708      36.502917    
    638000   403.42489      868.47571      36.73899       36.796708      36.502917    
    639000   394.02038      1399.6252      36.73899       36.796708      36.502917    
    640000   400.0475       745.91467      36.73899       36.796708      36.502917    
    641000   394.21332      1279.5722      36.73899       36.796708      36.502917    
    642000   401.83349      1492.3899      36.73899       36.796708      36.502917    
    643000   410.08244      1375.0781      36.73899       36.796708      36.502917    
    644000   401.52204      1126.6895      36.73899       36.796708      36.502917    
    645000   408.49568      186.99126      36.73899       36.796708      36.502917    
    646000   402.29462      1036.0888      36.73899       36.796708      36.502917    
    647000   390.49419      378.87441      36.73899       36.796708      36.502917    
    648000   403.54083      1194.4682      36.73899       36.796708      36.502917    
    649000   402.08602      885.15063      36.73899       36.796708      36.502917    
    650000   404.22373      995.18816      36.73899       36.796708      36.502917    
    651000   394.3718       886.82282      36.73899       36.796708      36.502917    
    652000   391.21164      961.7505       36.73899       36.796708      36.502917    
    653000   396.46487      1269.8608      36.73899       36.796708      36.502917    
    654000   398.0961       887.35974      36.73899       36.796708      36.502917    
    655000   403.81403      1151.2221      36.73899       36.796708      36.502917    
    656000   399.25789      877.90846      36.73899       36.796708      36.502917    
    657000   398.55672      1087.0323      36.73899       36.796708      36.502917    
    658000   398.70778      1215.5025      36.73899       36.796708      36.502917    
    659000   392.63686      1699.2982      36.73899       36.796708      36.502917    
    660000   399.45427      1842.5225      36.73899       36.796708      36.502917    
    661000   399.11155      496.32127      36.73899       36.796708      36.502917    
    662000   400.64057      965.58172      36.73899       36.796708      36.502917    
    663000   391.88872      759.92878      36.73899       36.796708      36.502917    
    664000   389.23629      874.26854      36.73899       36.796708      36.502917    
    665000   387.57043      169.63254      36.73899       36.796708      36.502917    
    666000   403.24977      504.39927      36.73899       36.796708      36.502917    
    667000   394.58948      809.9919       36.73899       36.796708      36.502917    
    668000   384.77413      622.50553      36.73899       36.796708      36.502917    
    669000   415.66233      1187.7957      36.73899       36.796708      36.502917    
    670000   398.46161      352.51643      36.73899       36.796708      36.502917    
    671000   398.76573      1089.6007      36.73899       36.796708      36.502917    
    672000   410.50838      517.67381      36.73899       36.796708      36.502917    
    673000   404.68215      1056.5125      36.73899       36.796708      36.502917    
    674000   397.64827      1008.2376      36.73899       36.796708      36.502917    
    675000   399.93844      831.98382      36.73899       36.796708      36.502917    
    676000   391.25694     -23.06806       36.73899       36.796708      36.502917    
    677000   407.20454      824.95593      36.73899       36.796708      36.502917    
    678000   399.42236      850.44493      36.73899       36.796708      36.502917    
    679000   403.97336      1160.5371      36.73899       36.796708      36.502917    
    680000   404.27924      285.81221      36.73899       36.796708      36.502917    
    681000   397.11053      944.59537      36.73899       36.796708      36.502917    
    682000   403.6719       718.51618      36.73899       36.796708      36.502917    
    683000   404.15785      575.21707      36.73899       36.796708      36.502917    
    684000   396.0902       679.0882       36.73899       36.796708      36.502917    
    685000   404.85805      1189.7125      36.73899       36.796708      36.502917    
    686000   389.04857      1225.2516      36.73899       36.796708      36.502917    
    687000   407.25117      914.18571      36.73899       36.796708      36.502917    
    688000   392.61193      977.29753      36.73899       36.796708      36.502917    
    689000   393.29071      1088.0387      36.73899       36.796708      36.502917    
    690000   387.716        611.62706      36.73899       36.796708      36.502917    
    691000   412.88629      788.68946      36.73899       36.796708      36.502917    
    692000   402.91799      422.07672      36.73899       36.796708      36.502917    
    693000   401.30987      1280.971       36.73899       36.796708      36.502917    
    694000   393.82088      1392.0575      36.73899       36.796708      36.502917    
    695000   405.28012      856.86509      36.73899       36.796708      36.502917    
    696000   401.10027      912.17731      36.73899       36.796708      36.502917    
    697000   403.69022      1057.981       36.73899       36.796708      36.502917    
    698000   390.11202      648.22374      36.73899       36.796708      36.502917    
    699000   406.3364       749.0157       36.73899       36.796708      36.502917    
    700000   403.11441      582.94792      36.73899       36.796708      36.502917    
    701000   399.69965      1036.7907      36.73899       36.796708      36.502917    
    702000   401.05544      679.15748      36.73899       36.796708      36.502917    
    703000   392.3301       1006.9854      36.73899       36.796708      36.502917    
    704000   399.23506      869.84852      36.73899       36.796708      36.502917    
    705000   400.45485      1229.0016      36.73899       36.796708      36.502917    
    706000   390.11581      336.36321      36.73899       36.796708      36.502917    
    707000   401.18681      722.08835      36.73899       36.796708      36.502917    
    708000   396.75385      743.53348      36.73899       36.796708      36.502917    
    709000   401.78892      1083.2156      36.73899       36.796708      36.502917    
    710000   400.51618      1563.5173      36.73899       36.796708      36.502917    
    711000   389.35904      1411.9661      36.73899       36.796708      36.502917    
    712000   408.60895      1227.7723      36.73899       36.796708      36.502917    
    713000   409.77645      1340.3227      36.73899       36.796708      36.502917    
    714000   393.08597      1565.8001      36.73899       36.796708      36.502917    
    715000   400.65841      1186.9964      36.73899       36.796708      36.502917    
    716000   394.89123      1649.5859      36.73899       36.796708      36.502917    
    717000   395.02624      1345.7878      36.73899       36.796708      36.502917    
    718000   400.61656      789.45047      36.73899       36.796708      36.502917    
    719000   398.00724      1090.1465      36.73899       36.796708      36.502917    
    720000   402.95163      1142.6285      36.73899       36.796708      36.502917    
    721000   395.88785      631.50353      36.73899       36.796708      36.502917    
    722000   404.56052      1190.2216      36.73899       36.796708      36.502917    
    723000   404.23332      1078.4464      36.73899       36.796708      36.502917    
    724000   407.64719      1080.3996      36.73899       36.796708      36.502917    
    725000   403.32126      532.45108      36.73899       36.796708      36.502917    
    726000   396.71696      1108.7595      36.73899       36.796708      36.502917    
    727000   403.01273      1463.137       36.73899       36.796708      36.502917    
    728000   392.88951      925.48062      36.73899       36.796708      36.502917    
    729000   416.01877      1371.1782      36.73899       36.796708      36.502917    
    730000   398.11665      1177.2415      36.73899       36.796708      36.502917    
    731000   395.81175      1559.4177      36.73899       36.796708      36.502917    
    732000   396.24381      1022.4189      36.73899       36.796708      36.502917    
    733000   397.56043      1465.9366      36.73899       36.796708      36.502917    
    734000   398.68864      697.08735      36.73899       36.796708      36.502917    
    735000   385.16416      1413.7658      36.73899       36.796708      36.502917    
    736000   394.41881      660.12106      36.73899       36.796708      36.502917    
    737000   398.47253      489.25705      36.73899       36.796708      36.502917    
    738000   404.66693      681.49258      36.73899       36.796708      36.502917    
    739000   406.23877      1088.0304      36.73899       36.796708      36.502917    
    740000   390.0461       1216.5186      36.73899       36.796708      36.502917    
    741000   400.92711      1779.1252      36.73899       36.796708      36.502917    
    742000   395.80651      843.64458      36.73899       36.796708      36.502917    
    743000   389.91989      885.16923      36.73899       36.796708      36.502917    
    744000   401.6868       856.77723      36.73899       36.796708      36.502917    
    745000   388.39321      758.74278      36.73899       36.796708      36.502917    
    746000   385.71669      753.60943      36.73899       36.796708      36.502917    
    747000   393.79159      963.46783      36.73899       36.796708      36.502917    
    748000   412.10607      748.38739      36.73899       36.796708      36.502917    
    749000   406.48672      862.97765      36.73899       36.796708      36.502917    
    750000   386.59552      879.64468      36.73899       36.796708      36.502917    
    751000   397.34629      498.89567      36.73899       36.796708      36.502917    
    752000   397.9349       1060.6349      36.73899       36.796708      36.502917    
    753000   396.83232      559.71488      36.73899       36.796708      36.502917    
    754000   396.55637      1474.8343      36.73899       36.796708      36.502917    
    755000   394.59573      471.63706      36.73899       36.796708      36.502917    
    756000   415.80643      932.59018      36.73899       36.796708      36.502917    
    757000   400.41081      774.84832      36.73899       36.796708      36.502917    
    758000   403.07565      962.98552      36.73899       36.796708      36.502917    
    759000   385.54438      908.7257       36.73899       36.796708      36.502917    
    760000   393.588       -56.462087      36.73899       36.796708      36.502917    
    761000   394.88479      547.34127      36.73899       36.796708      36.502917    
    762000   409.83308      801.17646      36.73899       36.796708      36.502917    
    763000   407.84068      943.43509      36.73899       36.796708      36.502917    
    764000   399.85412      783.23695      36.73899       36.796708      36.502917    
    765000   394.30098      723.65732      36.73899       36.796708      36.502917    
    766000   402.3164       606.60771      36.73899       36.796708      36.502917    
    767000   386.11847      550.34258      36.73899       36.796708      36.502917    
    768000   408.33705      436.16653      36.73899       36.796708      36.502917    
    769000   400.48758      1193.8207      36.73899       36.796708      36.502917    
    770000   391.70891      1161.8678      36.73899       36.796708      36.502917    
    771000   396.55846      588.67661      36.73899       36.796708      36.502917    
    772000   398.58485      1430.6791      36.73899       36.796708      36.502917    
    773000   399.11171      1285.7422      36.73899       36.796708      36.502917    
    774000   397.2927       939.35145      36.73899       36.796708      36.502917    
    775000   404.62304      1045.0111      36.73899       36.796708      36.502917    
    776000   396.97047      407.84917      36.73899       36.796708      36.502917    
    777000   399.23503      1029.2753      36.73899       36.796708      36.502917    
    778000   404.20748      1470.7614      36.73899       36.796708      36.502917    
    779000   404.89791      1254.4884      36.73899       36.796708      36.502917    
    780000   396.67231      1010.0696      36.73899       36.796708      36.502917    
    781000   403.57771      1578.2977      36.73899       36.796708      36.502917    
    782000   406.79663      957.50191      36.73899       36.796708      36.502917    
    783000   407.65242      608.66704      36.73899       36.796708      36.502917    
    784000   410.02593      514.947        36.73899       36.796708      36.502917    
    785000   396.41495      995.48481      36.73899       36.796708      36.502917    
    786000   397.39135      962.81509      36.73899       36.796708      36.502917    
    787000   393.93543      579.06181      36.73899       36.796708      36.502917    
    788000   390.39699      791.05679      36.73899       36.796708      36.502917    
    789000   397.03533      1451.9127      36.73899       36.796708      36.502917    
    790000   402.56072      315.73758      36.73899       36.796708      36.502917    
    791000   396.31756      1135.0326      36.73899       36.796708      36.502917    
    792000   395.02679      519.7995       36.73899       36.796708      36.502917    
    793000   402.14199      1157.9216      36.73899       36.796708      36.502917    
    794000   398.41822      1155.4613      36.73899       36.796708      36.502917    
    795000   395.95002      834.83713      36.73899       36.796708      36.502917    
    796000   387.00171      1252.5594      36.73899       36.796708      36.502917    
    797000   405.25206      1184.6711      36.73899       36.796708      36.502917    
    798000   403.02695      788.15284      36.73899       36.796708      36.502917    
    799000   388.02003      483.5766       36.73899       36.796708      36.502917    
    800000   401.19594      1298.8415      36.73899       36.796708      36.502917    
    801000   405.73888      809.19303      36.73899       36.796708      36.502917    
    802000   403.78919      704.23805      36.73899       36.796708      36.502917    
    803000   390.66433      95.917461      36.73899       36.796708      36.502917    
    804000   401.50505      906.87847      36.73899       36.796708      36.502917    
    805000   400.0845       968.76183      36.73899       36.796708      36.502917    
    806000   393.58215      602.3313       36.73899       36.796708      36.502917    
    807000   400.97289      1160.7551      36.73899       36.796708      36.502917    
    808000   402.96719      1326.8325      36.73899       36.796708      36.502917    
    809000   405.53305      1432.2882      36.73899       36.796708      36.502917    
    810000   400.40524      893.14804      36.73899       36.796708      36.502917    
    811000   395.22601      739.60132      36.73899       36.796708      36.502917    
    812000   398.59942      1121.7856      36.73899       36.796708      36.502917    
    813000   400.67981      1501.1531      36.73899       36.796708      36.502917    
    814000   400.59418      204.74027      36.73899       36.796708      36.502917    
    815000   403.0431       937.60548      36.73899       36.796708      36.502917    
    816000   405.30085      1505.6223      36.73899       36.796708      36.502917    
    817000   407.06728      944.01021      36.73899       36.796708      36.502917    
    818000   399.88716      1162.7496      36.73899       36.796708      36.502917    
    819000   407.84783      1317.1361      36.73899       36.796708      36.502917    
    820000   393.05555      710.59585      36.73899       36.796708      36.502917    
    821000   399.22185      1296.4735      36.73899       36.796708      36.502917    
    822000   399.33582      1410.8907      36.73899       36.796708      36.502917    
    823000   396.91981      1099.4429      36.73899       36.796708      36.502917    
    824000   403.62759      1143.9521      36.73899       36.796708      36.502917    
    825000   412.11129      840.65064      36.73899       36.796708      36.502917    
    826000   398.14632      838.15094      36.73899       36.796708      36.502917    
    827000   403.67747      1322.2322      36.73899       36.796708      36.502917    
    828000   390.83786      1259.1514      36.73899       36.796708      36.502917    
    829000   406.96488      877.63295      36.73899       36.796708      36.502917    
    830000   392.32098      208.23227      36.73899       36.796708      36.502917    
    831000   401.93185      1364.2652      36.73899       36.796708      36.502917    
    832000   402.86152      859.63114      36.73899       36.796708      36.502917    
    833000   411.50567      880.85146      36.73899       36.796708      36.502917    
    834000   391.98819      1739.6329      36.73899       36.796708      36.502917    
    835000   406.10464      1503.497       36.73899       36.796708      36.502917    
    836000   398.80145      1060.6218      36.73899       36.796708      36.502917    
    837000   403.02376      510.8301       36.73899       36.796708      36.502917    
    838000   393.26402      365.64226      36.73899       36.796708      36.502917    
    839000   408.13571      956.47863      36.73899       36.796708      36.502917    
    840000   395.46296      1210.2497      36.73899       36.796708      36.502917    
    841000   404.55124      1461.9723      36.73899       36.796708      36.502917    
    842000   406.69616      947.52409      36.73899       36.796708      36.502917    
    843000   401.13012      1357.6003      36.73899       36.796708      36.502917    
    844000   402.24243      1034.8951      36.73899       36.796708      36.502917    
    845000   396.57779      466.78108      36.73899       36.796708      36.502917    
    846000   409.68409      925.20363      36.73899       36.796708      36.502917    
    847000   418.95901      2061.5389      36.73899       36.796708      36.502917    
    848000   397.02456      1235.5094      36.73899       36.796708      36.502917    
    849000   403.98613      1416.3988      36.73899       36.796708      36.502917    
    850000   401.80907      886.79371      36.73899       36.796708      36.502917    
    851000   402.01626      1464.3418      36.73899       36.796708      36.502917    
    852000   391.67292      1407.66        36.73899       36.796708      36.502917    
    853000   391.58203      1362.5009      36.73899       36.796708      36.502917    
    854000   392.90145      963.62388      36.73899       36.796708      36.502917    
    855000   404.68191      812.7838       36.73899       36.796708      36.502917    
    856000   402.18431      588.58897      36.73899       36.796708      36.502917    
    857000   395.61136      958.34015      36.73899       36.796708      36.502917    
    858000   399.84207      1200.5573      36.73899       36.796708      36.502917    
    859000   402.79647      2010.8423      36.73899       36.796708      36.502917    
    860000   393.21763      701.25824      36.73899       36.796708      36.502917    
    861000   393.26742      1442.2762      36.73899       36.796708      36.502917    
    862000   401.28245      1553.8221      36.73899       36.796708      36.502917    
    863000   404.39916      1675.1969      36.73899       36.796708      36.502917    
    864000   405.18721      1820.3326      36.73899       36.796708      36.502917    
    865000   400.06793      1294.2744      36.73899       36.796708      36.502917    
    866000   395.18156      1135.5203      36.73899       36.796708      36.502917    
    867000   394.80657      1385.1057      36.73899       36.796708      36.502917    
    868000   396.21349      347.36725      36.73899       36.796708      36.502917    
    869000   395.43837      1221.0721      36.73899       36.796708      36.502917    
    870000   410.86141      1471.321       36.73899       36.796708      36.502917    
    871000   408.50136      1324.1657      36.73899       36.796708      36.502917    
    872000   406.15179      1572.4001      36.73899       36.796708      36.502917    
    873000   403.59693      336.05338      36.73899       36.796708      36.502917    
    874000   401.37392      1589.1799      36.73899       36.796708      36.502917    
    875000   393.74673      1869.246       36.73899       36.796708      36.502917    
    876000   393.30499      935.10616      36.73899       36.796708      36.502917    
    877000   398.92111      1689.4098      36.73899       36.796708      36.502917    
    878000   393.43339      702.62824      36.73899       36.796708      36.502917    
    879000   393.9182       744.11805      36.73899       36.796708      36.502917    
    880000   384.84215      1063.9033      36.73899       36.796708      36.502917    
    881000   401.17409      1476.6285      36.73899       36.796708      36.502917    
    882000   393.70362      1317.7245      36.73899       36.796708      36.502917    
    883000   398.08676      1540.2163      36.73899       36.796708      36.502917    
    884000   405.09634      590.93179      36.73899       36.796708      36.502917    
    885000   400.79679      1525.7464      36.73899       36.796708      36.502917    
    886000   402.40679      1359.5741      36.73899       36.796708      36.502917    
    887000   401.53231      1990.6642      36.73899       36.796708      36.502917    
    888000   397.49323      735.23631      36.73899       36.796708      36.502917    
    889000   392.62713      814.41678      36.73899       36.796708      36.502917    
    890000   402.43456      441.07509      36.73899       36.796708      36.502917    
    891000   395.07972      1144.1435      36.73899       36.796708      36.502917    
    892000   404.93673      1436.4197      36.73899       36.796708      36.502917    
    893000   398.3629       776.4056       36.73899       36.796708      36.502917    
    894000   397.83574      1320.8937      36.73899       36.796708      36.502917    
    895000   409.3199       1148.8642      36.73899       36.796708      36.502917    
    896000   406.3715       939.04312      36.73899       36.796708      36.502917    
    897000   397.85552      238.1471       36.73899       36.796708      36.502917    
    898000   405.50265      1747.8437      36.73899       36.796708      36.502917    
    899000   400.64447      631.76767      36.73899       36.796708      36.502917    
    900000   396.48548      625.96706      36.73899       36.796708      36.502917    
    901000   394.69543      1550.8795      36.73899       36.796708      36.502917    
    902000   396.58225      1344.4575      36.73899       36.796708      36.502917    
    903000   398.12968      592.6814       36.73899       36.796708      36.502917    
    904000   409.2839       571.48742      36.73899       36.796708      36.502917    
    905000   385.77822      834.72122      36.73899       36.796708      36.502917    
    906000   410.71315      981.93263      36.73899       36.796708      36.502917    
    907000   391.92781      865.08434      36.73899       36.796708      36.502917    
    908000   408.80388      852.0858       36.73899       36.796708      36.502917    
    909000   400.80285      1085.2169      36.73899       36.796708      36.502917    
    910000   399.483        1313.4422      36.73899       36.796708      36.502917    
    911000   396.58561      1142.3851      36.73899       36.796708      36.502917    
    912000   406.87605      927.37324      36.73899       36.796708      36.502917    
    913000   394.23643      1690.4862      36.73899       36.796708      36.502917    
    914000   397.73783      1419.9623      36.73899       36.796708      36.502917    
    915000   393.31798      1605.2523      36.73899       36.796708      36.502917    
    916000   396.53303      1540.4605      36.73899       36.796708      36.502917    
    917000   405.97129      1091.4452      36.73899       36.796708      36.502917    
    918000   391.77489      1025.6421      36.73899       36.796708      36.502917    
    919000   404.49565      985.5675       36.73899       36.796708      36.502917    
    920000   400.98306      661.69601      36.73899       36.796708      36.502917    
    921000   395.06483      1096.1791      36.73899       36.796708      36.502917    
    922000   405.46298      522.91222      36.73899       36.796708      36.502917    
    923000   402.3149       1728.1836      36.73899       36.796708      36.502917    
    924000   399.12748      1521.2098      36.73899       36.796708      36.502917    
    925000   401.86684      1841.9242      36.73899       36.796708      36.502917    
    926000   401.48911      923.28998      36.73899       36.796708      36.502917    
    927000   399.99442      1581.2091      36.73899       36.796708      36.502917    
    928000   395.55782      1358.8488      36.73899       36.796708      36.502917    
    929000   403.10634      1401.412       36.73899       36.796708      36.502917    
    930000   401.81266      805.78717      36.73899       36.796708      36.502917    
    931000   395.88886      903.92745      36.73899       36.796708      36.502917    
    932000   408.02797      1090.3612      36.73899       36.796708      36.502917    
    933000   391.81389      1340.2686      36.73899       36.796708      36.502917    
    934000   406.53933      868.93979      36.73899       36.796708      36.502917    
    935000   399.93861      1106.0836      36.73899       36.796708      36.502917    
    936000   403.25687      1320.6496      36.73899       36.796708      36.502917    
    937000   399.06265      1109.2375      36.73899       36.796708      36.502917    
    938000   402.70616      1305.3089      36.73899       36.796708      36.502917    
    939000   394.21628      1140.3541      36.73899       36.796708      36.502917    
    940000   400.25739      1034.564       36.73899       36.796708      36.502917    
    941000   386.85623      1763.5335      36.73899       36.796708      36.502917    
    942000   396.75081      640.88968      36.73899       36.796708      36.502917    
    943000   402.25298      870.49342      36.73899       36.796708      36.502917    
    944000   400.41428      1624.2275      36.73899       36.796708      36.502917    
    945000   401.53167      926.50372      36.73899       36.796708      36.502917    
    946000   393.38141      1239.0231      36.73899       36.796708      36.502917    
    947000   395.56909      1426.7177      36.73899       36.796708      36.502917    
    948000   386.55556      1884.9499      36.73899       36.796708      36.502917    
    949000   404.81976      1376.8689      36.73899       36.796708      36.502917    
    950000   395.25218      1295.8519      36.73899       36.796708      36.502917    
    951000   390.9838       965.65287      36.73899       36.796708      36.502917    
    952000   401.19222      1180.05        36.73899       36.796708      36.502917    
    953000   396.00788      982.0296       36.73899       36.796708      36.502917    
    954000   399.05344      895.60198      36.73899       36.796708      36.502917    
    955000   402.90939      1655.5073      36.73899       36.796708      36.502917    
    956000   398.20458      1629.4871      36.73899       36.796708      36.502917    
    957000   404.82908      1682.313       36.73899       36.796708      36.502917    
    958000   400.36028      914.24928      36.73899       36.796708      36.502917    
    959000   402.59519      732.57966      36.73899       36.796708      36.502917    
    960000   402.32533      987.96509      36.73899       36.796708      36.502917    
    961000   399.38962      962.8356       36.73899       36.796708      36.502917    
    962000   402.14464      908.90988      36.73899       36.796708      36.502917    
    963000   401.69448      871.1885       36.73899       36.796708      36.502917    
    964000   401.49759      543.5484       36.73899       36.796708      36.502917    
    965000   389.86415      697.31113      36.73899       36.796708      36.502917    
    966000   404.62201      1610.3769      36.73899       36.796708      36.502917    
    967000   396.87143      741.95407      36.73899       36.796708      36.502917    
    968000   386.00411      607.77698      36.73899       36.796708      36.502917    
    969000   407.75955      691.34791      36.73899       36.796708      36.502917    
    970000   409.76676      1064.2581      36.73899       36.796708      36.502917    
    971000   393.93529      804.12467      36.73899       36.796708      36.502917    
    972000   406.79343      1187.3551      36.73899       36.796708      36.502917    
    973000   395.25071      1151.2961      36.73899       36.796708      36.502917    
    974000   391.62762      1660.4699      36.73899       36.796708      36.502917    
    975000   397.59567      1215.3481      36.73899       36.796708      36.502917    
    976000   397.73921      654.46939      36.73899       36.796708      36.502917    
    977000   393.61344      1033.3205      36.73899       36.796708      36.502917    
    978000   402.59202      1126.9255      36.73899       36.796708      36.502917    
    979000   395.95002      761.40466      36.73899       36.796708      36.502917    
    980000   390.71429      939.59689      36.73899       36.796708      36.502917    
    981000   402.3812       1164.0609      36.73899       36.796708      36.502917    
    982000   410.34338      881.42389      36.73899       36.796708      36.502917    
    983000   406.54243      1225.733       36.73899       36.796708      36.502917    
    984000   393.72564      1229.4079      36.73899       36.796708      36.502917    
    985000   407.09518      856.79936      36.73899       36.796708      36.502917    
    986000   400.08655      1218.9272      36.73899       36.796708      36.502917    
    987000   408.52035      1618.4984      36.73899       36.796708      36.502917    
    988000   401.1407       1858.9746      36.73899       36.796708      36.502917    
    989000   397.95973      884.95651      36.73899       36.796708      36.502917    
    990000   407.32441      1100.914       36.73899       36.796708      36.502917    
    991000   394.72553      1195.3263      36.73899       36.796708      36.502917    
    992000   401.09806      78.763176      36.73899       36.796708      36.502917    
    993000   406.91037      1120.0665      36.73899       36.796708      36.502917    
    994000   399.8227       789.31643      36.73899       36.796708      36.502917    
    995000   406.00334      1724.7872      36.73899       36.796708      36.502917    
    996000   412.07459      892.70674      36.73899       36.796708      36.502917    
    997000   398.01401      537.93488      36.73899       36.796708      36.502917    
    998000   409.76133      1150.4842      36.73899       36.796708      36.502917    
    999000   407.36129      972.65043      36.73899       36.796708      36.502917    
   1000000   388.99034      790.04873      36.73899       36.796708      36.502917    
Loop time of 160.692 on 40 procs for 500000 steps with 2592 atoms

Performance: 268.838 ns/day, 0.089 hours/ns, 3111.550 timesteps/s, 8.065 Matom-step/s
89.9% CPU use with 40 MPI tasks x no OpenMP threads

MPI task timing breakdown:
Section |  min time  |  avg time  |  max time  |%varavg| %total
---------------------------------------------------------------
Pair    | 41.269     | 48.744     | 54.634     |  50.2 | 30.33
Neigh   | 4.7692     | 5.3478     | 5.9085     |  11.9 |  3.33
Comm    | 76.997     | 82.873     | 90.073     |  35.7 | 51.57
Output  | 0.013398   | 0.01424    | 0.021489   |   1.0 |  0.01
Modify  | 14.763     | 16.728     | 18.922     |  32.6 | 10.41
Other   |            | 6.986      |            |       |  4.35

Nlocal:           64.8 ave          76 max          56 min
Histogram: 1 3 6 7 4 7 7 3 0 2
Nghost:        1625.45 ave        1695 max        1585 min
Histogram: 7 7 1 7 8 2 2 3 1 2
Neighs:         7752.7 ave        9465 max        6285 min
Histogram: 3 3 5 6 5 7 6 1 2 2

Total # of neighbors = 310108
Ave neighs/atom = 119.64043
Neighbor list builds = 24585
Dangerous builds = 0
Generated 0 of 1 mixed pair_coeff terms from geometric mixing rule
Setting up Verlet run ...
  Unit style    : metal
  Current step  : 1000000
  Time step     : 0.001
Per MPI rank memory allocation (min/avg/max) = 3.124 | 3.129 | 3.132 Mbytes
   Step          Temp          Press            Lx             Ly             Lz      
   1000000   388.99034      790.04873      36.73899       36.796708      36.502917    
   1001000   387.82782      788.9958       36.73899       36.796708      36.502917    
   1002000   392.46767      617.68122      36.73899       36.796708      36.502917    
   1003000   392.80859      521.35901      36.73899       36.796708      36.502917    
   1004000   392.33661      641.96436      36.73899       36.796708      36.502917    
   1005000   397.2709       268.59216      36.73899       36.796708      36.502917    
   1006000   396.72453      258.84034      36.73899       36.796708      36.502917    
   1007000   382.49506      1112.9733      36.73899       36.796708      36.502917    
   1008000   395.7998       364.55066      36.73899       36.796708      36.502917    
   1009000   388.76699      817.3634       36.73899       36.796708      36.502917    
   1010000   397.41408      238.40895      36.73899       36.796708      36.502917    
   1011000   394.53328      313.3588       36.73899       36.796708      36.502917    
   1012000   391.0162       594.24638      36.73899       36.796708      36.502917    
   1013000   385.86576      1019.2624      36.73899       36.796708      36.502917    
   1014000   389.23834      796.99753      36.73899       36.796708      36.502917    
   1015000   389.9663       750.51977      36.73899       36.796708      36.502917    
   1016000   391.68967      729.58472      36.73899       36.796708      36.502917    
   1017000   392.18061      660.71744      36.73899       36.796708      36.502917    
   1018000   397.93017      251.32945      36.73899       36.796708      36.502917    
   1019000   385.75852      998.35928      36.73899       36.796708      36.502917    
   1020000   384.59806      1037.1662      36.73899       36.796708      36.502917    
   1021000   386.78243      913.37525      36.73899       36.796708      36.502917    
   1022000   385.2059       1012.9792      36.73899       36.796708      36.502917    
   1023000   396.69554      349.99321      36.73899       36.796708      36.502917    
   1024000   390.25046      795.20583      36.73899       36.796708      36.502917    
   1025000   390.72856      833.18683      36.73899       36.796708      36.502917    
   1026000   389.85743      825.96403      36.73899       36.796708      36.502917    
   1027000   393.09443      706.2348       36.73899       36.796708      36.502917    
   1028000   393.23599      805.48528      36.73899       36.796708      36.502917    
   1029000   388.12127      997.38655      36.73899       36.796708      36.502917    
   1030000   397.12129      499.29508      36.73899       36.796708      36.502917    
   1031000   396.25424      557.39724      36.73899       36.796708      36.502917    
   1032000   395.74543      649.41562      36.73899       36.796708      36.502917    
   1033000   394.34472      661.98884      36.73899       36.796708      36.502917    
   1034000   392.24657      773.42737      36.73899       36.796708      36.502917    
   1035000   390.92503      730.26367      36.73899       36.796708      36.502917    
   1036000   395.79784      488.44359      36.73899       36.796708      36.502917    
   1037000   391.06134      808.96572      36.73899       36.796708      36.502917    
   1038000   390.69779      805.12504      36.73899       36.796708      36.502917    
   1039000   397.38181      430.3178       36.73899       36.796708      36.502917    
   1040000   383.92034      1139.9103      36.73899       36.796708      36.502917    
   1041000   397.7133       253.63701      36.73899       36.796708      36.502917    
   1042000   396.41753      374.42501      36.73899       36.796708      36.502917    
   1043000   389.91803      811.25573      36.73899       36.796708      36.502917    
   1044000   387.01253      905.85585      36.73899       36.796708      36.502917    
   1045000   388.43091      889.86529      36.73899       36.796708      36.502917    
   1046000   393.74475      502.99471      36.73899       36.796708      36.502917    
   1047000   394.51762      339.87084      36.73899       36.796708      36.502917    
   1048000   399.93417      200.51369      36.73899       36.796708      36.502917    
   1049000   389.48869      763.08631      36.73899       36.796708      36.502917    
   1050000   396.73382      499.37295      36.73899       36.796708      36.502917    
   1051000   386.08035      897.14913      36.73899       36.796708      36.502917    
   1052000   388.88003      750.46284      36.73899       36.796708      36.502917    
   1053000   401.38584      206.08635      36.73899       36.796708      36.502917    
   1054000   387.77998      742.53439      36.73899       36.796708      36.502917    
   1055000   392.23557      575.5604       36.73899       36.796708      36.502917    
   1056000   388.81213      818.45438      36.73899       36.796708      36.502917    
   1057000   394.24326      450.25836      36.73899       36.796708      36.502917    
   1058000   389.7226       792.30149      36.73899       36.796708      36.502917    
   1059000   390.2016       798.61173      36.73899       36.796708      36.502917    
   1060000   389.97269      723.29847      36.73899       36.796708      36.502917    
   1061000   391.11432      669.67031      36.73899       36.796708      36.502917    
   1062000   399.93724      151.05897      36.73899       36.796708      36.502917    
   1063000   393.77161      486.75134      36.73899       36.796708      36.502917    
   1064000   383.3693       930.89236      36.73899       36.796708      36.502917    
   1065000   392.35306      513.57675      36.73899       36.796708      36.502917    
   1066000   391.11604      595.75926      36.73899       36.796708      36.502917    
   1067000   383.38119      1001.6874      36.73899       36.796708      36.502917    
   1068000   394.57489      346.84864      36.73899       36.796708      36.502917    
   1069000   388.24637      823.22929      36.73899       36.796708      36.502917    
   1070000   383.88272      993.75049      36.73899       36.796708      36.502917    
   1071000   396.47522      393.46358      36.73899       36.796708      36.502917    
   1072000   384.34562      1022.1308      36.73899       36.796708      36.502917    
   1073000   396.20459      403.8927       36.73899       36.796708      36.502917    
   1074000   391.12529      691.27239      36.73899       36.796708      36.502917    
   1075000   394.02844      517.08803      36.73899       36.796708      36.502917    
   1076000   391.52706      521.59584      36.73899       36.796708      36.502917    
   1077000   398.98077      207.34971      36.73899       36.796708      36.502917    
   1078000   396.25861      376.23481      36.73899       36.796708      36.502917    
   1079000   392.44265      592.64504      36.73899       36.796708      36.502917    
   1080000   400.83791      184.8489       36.73899       36.796708      36.502917    
   1081000   387.57898      886.07897      36.73899       36.796708      36.502917    
   1082000   392.03184      577.70811      36.73899       36.796708      36.502917    
   1083000   394.62927      582.01095      36.73899       36.796708      36.502917    
   1084000   392.26544      480.64294      36.73899       36.796708      36.502917    
   1085000   388.54454      836.00715      36.73899       36.796708      36.502917    
   1086000   394.63037      613.24086      36.73899       36.796708      36.502917    
   1087000   391.62847      684.83107      36.73899       36.796708      36.502917    
   1088000   389.00706      732.66135      36.73899       36.796708      36.502917    
   1089000   391.17703      754.34564      36.73899       36.796708      36.502917    
   1090000   388.76325      984.01899      36.73899       36.796708      36.502917    
   1091000   393.93604      528.58716      36.73899       36.796708      36.502917    
   1092000   393.44419      666.39735      36.73899       36.796708      36.502917    
   1093000   388.73873      914.87048      36.73899       36.796708      36.502917    
   1094000   395.15381      557.79002      36.73899       36.796708      36.502917    
   1095000   389.41903      878.21362      36.73899       36.796708      36.502917    
   1096000   398.38836      531.7173       36.73899       36.796708      36.502917    
   1097000   396.56238      433.7053       36.73899       36.796708      36.502917    
   1098000   391.00745      754.89198      36.73899       36.796708      36.502917    
   1099000   398.10787      422.34839      36.73899       36.796708      36.502917    
   1100000   392.78591      856.38439      36.73899       36.796708      36.502917    
   1101000   389.45646      940.88425      36.73899       36.796708      36.502917    
   1102000   391.51742      765.49695      36.73899       36.796708      36.502917    
   1103000   387.96417      865.44125      36.73899       36.796708      36.502917    
   1104000   387.95385      877.72988      36.73899       36.796708      36.502917    
   1105000   394.58549      602.33638      36.73899       36.796708      36.502917    
   1106000   391.77554      744.96317      36.73899       36.796708      36.502917    
   1107000   384.43184      1093.4121      36.73899       36.796708      36.502917    
   1108000   390.67805      827.11059      36.73899       36.796708      36.502917    
   1109000   395.55556      422.79914      36.73899       36.796708      36.502917    
   1110000   390.87407      739.61009      36.73899       36.796708      36.502917    
   1111000   390.3309       702.59534      36.73899       36.796708      36.502917    
   1112000   401.22787      262.23628      36.73899       36.796708      36.502917    
   1113000   389.18545      951.49705      36.73899       36.796708      36.502917    
   1114000   389.34323      853.95207      36.73899       36.796708      36.502917    
   1115000   395.88384      573.4308       36.73899       36.796708      36.502917    
   1116000   394.56339      597.98187      36.73899       36.796708      36.502917    
   1117000   387.41822      836.31003      36.73899       36.796708      36.502917    
   1118000   383.70628      1026.5874      36.73899       36.796708      36.502917    
   1119000   389.29136      771.20772      36.73899       36.796708      36.502917    
   1120000   390.77434      920.45561      36.73899       36.796708      36.502917    
   1121000   390.65206      824.04837      36.73899       36.796708      36.502917    
   1122000   394.12257      574.55166      36.73899       36.796708      36.502917    
   1123000   394.19349      672.42633      36.73899       36.796708      36.502917    
   1124000   390.42898      719.33274      36.73899       36.796708      36.502917    
   1125000   390.80159      607.83567      36.73899       36.796708      36.502917    
   1126000   391.86912      731.78043      36.73899       36.796708      36.502917    
   1127000   393.51202      613.30566      36.73899       36.796708      36.502917    
   1128000   394.37325      472.38444      36.73899       36.796708      36.502917    
   1129000   392.65602      578.13373      36.73899       36.796708      36.502917    
   1130000   395.32485      542.86924      36.73899       36.796708      36.502917    
   1131000   394.74699      463.91768      36.73899       36.796708      36.502917    
   1132000   380.16105      1324.5962      36.73899       36.796708      36.502917    
   1133000   391.97981      689.23492      36.73899       36.796708      36.502917    
   1134000   392.05327      673.38346      36.73899       36.796708      36.502917    
   1135000   395.04359      429.10868      36.73899       36.796708      36.502917    
   1136000   398.89993      177.70144      36.73899       36.796708      36.502917    
   1137000   395.49852      528.84644      36.73899       36.796708      36.502917    
   1138000   394.80387      547.1119       36.73899       36.796708      36.502917    
   1139000   395.38692      427.39846      36.73899       36.796708      36.502917    
   1140000   390.4076       722.92562      36.73899       36.796708      36.502917    
   1141000   389.60351      659.44094      36.73899       36.796708      36.502917    
   1142000   399.34011      230.53763      36.73899       36.796708      36.502917    
   1143000   390.22174      664.18848      36.73899       36.796708      36.502917    
   1144000   393.75276      565.95021      36.73899       36.796708      36.502917    
   1145000   391.34606      688.8739       36.73899       36.796708      36.502917    
   1146000   387.57049      783.15572      36.73899       36.796708      36.502917    
   1147000   393.05768      533.99966      36.73899       36.796708      36.502917    
   1148000   399.54652      318.42522      36.73899       36.796708      36.502917    
   1149000   401.40125      133.11244      36.73899       36.796708      36.502917    
   1150000   384.49516      1022.9975      36.73899       36.796708      36.502917    
   1151000   395.55868      414.66963      36.73899       36.796708      36.502917    
   1152000   392.37049      607.91338      36.73899       36.796708      36.502917    
   1153000   389.16534      787.1497       36.73899       36.796708      36.502917    
   1154000   393.3378       534.76736      36.73899       36.796708      36.502917    
   1155000   396.64692      367.72853      36.73899       36.796708      36.502917    
   1156000   389.59899      724.3098       36.73899       36.796708      36.502917    
   1157000   396.53537      421.55113      36.73899       36.796708      36.502917    
   1158000   401.7385       217.18024      36.73899       36.796708      36.502917    
   1159000   396.2171       411.09318      36.73899       36.796708      36.502917    
   1160000   393.30312      592.01794      36.73899       36.796708      36.502917    
   1161000   388.16878      868.99791      36.73899       36.796708      36.502917    
   1162000   390.69136      577.88373      36.73899       36.796708      36.502917    
   1163000   397.42463      355.82147      36.73899       36.796708      36.502917    
   1164000   389.57329      911.63693      36.73899       36.796708      36.502917    
   1165000   392.59736      623.515        36.73899       36.796708      36.502917    
   1166000   390.27545      848.58314      36.73899       36.796708      36.502917    
   1167000   390.12226      714.03814      36.73899       36.796708      36.502917    
   1168000   385.97586      863.90052      36.73899       36.796708      36.502917    
   1169000   392.00292      548.80008      36.73899       36.796708      36.502917    
   1170000   397.57546      401.71363      36.73899       36.796708      36.502917    
   1171000   391.43167      685.93545      36.73899       36.796708      36.502917    
   1172000   404.80359     -84.539574      36.73899       36.796708      36.502917    
   1173000   395.00071      517.8093       36.73899       36.796708      36.502917    
   1174000   392.13537      559.46642      36.73899       36.796708      36.502917    
   1175000   389.6322       757.2114       36.73899       36.796708      36.502917    
   1176000   397.09926      353.8605       36.73899       36.796708      36.502917    
   1177000   393.47592      527.03536      36.73899       36.796708      36.502917    
   1178000   390.16         747.06258      36.73899       36.796708      36.502917    
   1179000   392.27838      791.3693       36.73899       36.796708      36.502917    
   1180000   395.38975      452.89047      36.73899       36.796708      36.502917    
   1181000   385.44082      912.19308      36.73899       36.796708      36.502917    
   1182000   391.98907      449.66385      36.73899       36.796708      36.502917    
   1183000   394.52768      391.57256      36.73899       36.796708      36.502917    
   1184000   393.93131      320.52383      36.73899       36.796708      36.502917    
   1185000   391.26498      553.75044      36.73899       36.796708      36.502917    
   1186000   387.52069      757.3032       36.73899       36.796708      36.502917    
   1187000   402.01502      68.3301        36.73899       36.796708      36.502917    
   1188000   385.21767      944.02534      36.73899       36.796708      36.502917    
   1189000   398.42236      185.93194      36.73899       36.796708      36.502917    
   1190000   393.03668      534.90305      36.73899       36.796708      36.502917    
   1191000   391.50438      582.52512      36.73899       36.796708      36.502917    
   1192000   394.08977      375.92496      36.73899       36.796708      36.502917    
   1193000   393.53073      537.51337      36.73899       36.796708      36.502917    
   1194000   397.0569       498.1871       36.73899       36.796708      36.502917    
   1195000   395.37179      478.03638      36.73899       36.796708      36.502917    
   1196000   398.41068      237.705        36.73899       36.796708      36.502917    
   1197000   393.76879      513.57751      36.73899       36.796708      36.502917    
   1198000   389.70861      740.35298      36.73899       36.796708      36.502917    
   1199000   391.19908      472.04074      36.73899       36.796708      36.502917    
   1200000   394.85234      514.10725      36.73899       36.796708      36.502917    
   1201000   387.10575      806.56619      36.73899       36.796708      36.502917    
   1202000   388.99983      754.58419      36.73899       36.796708      36.502917    
   1203000   384.91305      956.57305      36.73899       36.796708      36.502917    
   1204000   389.16105      717.06479      36.73899       36.796708      36.502917    
   1205000   392.53731      744.53768      36.73899       36.796708      36.502917    
   1206000   392.54798      630.3907       36.73899       36.796708      36.502917    
   1207000   391.93449      697.36895      36.73899       36.796708      36.502917    
   1208000   392.49895      634.7252       36.73899       36.796708      36.502917    
   1209000   395.14931      408.3636       36.73899       36.796708      36.502917    
   1210000   391.41924      535.47905      36.73899       36.796708      36.502917    
   1211000   394.5579       383.70484      36.73899       36.796708      36.502917    
   1212000   390.64758      595.72552      36.73899       36.796708      36.502917    
   1213000   399.70099      19.717845      36.73899       36.796708      36.502917    
   1214000   392.08328      550.76637      36.73899       36.796708      36.502917    
   1215000   393.14432      456.67711      36.73899       36.796708      36.502917    
   1216000   395.02296      365.07873      36.73899       36.796708      36.502917    
   1217000   385.72724      938.84544      36.73899       36.796708      36.502917    
   1218000   393.18579      525.37992      36.73899       36.796708      36.502917    
   1219000   388.65438      859.16626      36.73899       36.796708      36.502917    
   1220000   387.61955      865.97363      36.73899       36.796708      36.502917    
   1221000   396.50641      400.81483      36.73899       36.796708      36.502917    
   1222000   395.85427      398.8675       36.73899       36.796708      36.502917    
   1223000   395.15973      519.0722       36.73899       36.796708      36.502917    
   1224000   393.8981       457.84634      36.73899       36.796708      36.502917    
   1225000   390.23989      676.91362      36.73899       36.796708      36.502917    
   1226000   396.18112      369.60143      36.73899       36.796708      36.502917    
   1227000   398.75304      199.79032      36.73899       36.796708      36.502917    
   1228000   388.84918      698.24578      36.73899       36.796708      36.502917    
   1229000   396.11964      368.59083      36.73899       36.796708      36.502917    
   1230000   392.52505      599.76296      36.73899       36.796708      36.502917    
   1231000   393.29792      523.60394      36.73899       36.796708      36.502917    
   1232000   396.65333      316.25506      36.73899       36.796708      36.502917    
   1233000   403.4444      -178.93876      36.73899       36.796708      36.502917    
   1234000   390.67134      610.81538      36.73899       36.796708      36.502917    
   1235000   392.79089      587.88185      36.73899       36.796708      36.502917    
   1236000   393.38122      573.96958      36.73899       36.796708      36.502917    
   1237000   396.94462      373.45604      36.73899       36.796708      36.502917    
   1238000   394.02541      530.00449      36.73899       36.796708      36.502917    
   1239000   385.48507      977.36801      36.73899       36.796708      36.502917    
   1240000   385.50139      980.15955      36.73899       36.796708      36.502917    
   1241000   394.02325      451.94229      36.73899       36.796708      36.502917    
   1242000   386.83264      779.69085      36.73899       36.796708      36.502917    
   1243000   393.2331       494.37001      36.73899       36.796708      36.502917    
   1244000   393.16995      608.5475       36.73899       36.796708      36.502917    
   1245000   389.53122      714.4504       36.73899       36.796708      36.502917    
   1246000   387.7893       903.47689      36.73899       36.796708      36.502917    
   1247000   396.73464      454.77906      36.73899       36.796708      36.502917    
   1248000   393.30944      455.61133      36.73899       36.796708      36.502917    
   1249000   399.62895      177.29633      36.73899       36.796708      36.502917    
   1250000   392.49006      521.52882      36.73899       36.796708      36.502917    
   1251000   399.17917      28.17566       36.73899       36.796708      36.502917    
   1252000   387.05029      777.87382      36.73899       36.796708      36.502917    
   1253000   390.11681      822.37547      36.73899       36.796708      36.502917    
   1254000   396.96414      299.44543      36.73899       36.796708      36.502917    
   1255000   389.47384      760.13036      36.73899       36.796708      36.502917    
   1256000   389.92677      596.45299      36.73899       36.796708      36.502917    
   1257000   392.6006       474.30497      36.73899       36.796708      36.502917    
   1258000   387.00714      790.79266      36.73899       36.796708      36.502917    
   1259000   395.65722      232.90673      36.73899       36.796708      36.502917    
   1260000   397.32032      171.82683      36.73899       36.796708      36.502917    
   1261000   403.73034     -67.980241      36.73899       36.796708      36.502917    
   1262000   394.852        281.10201      36.73899       36.796708      36.502917    
   1263000   394.49614      317.19004      36.73899       36.796708      36.502917    
   1264000   384.92833      952.44255      36.73899       36.796708      36.502917    
   1265000   402.95317      10.271338      36.73899       36.796708      36.502917    
   1266000   395.90917      332.88171      36.73899       36.796708      36.502917    
   1267000   387.74575      697.63553      36.73899       36.796708      36.502917    
   1268000   388.56334      745.08188      36.73899       36.796708      36.502917    
   1269000   391.89021      531.63617      36.73899       36.796708      36.502917    
   1270000   382.92759      979.71582      36.73899       36.796708      36.502917    
   1271000   396.35736      378.90129      36.73899       36.796708      36.502917    
   1272000   393.75523      449.25589      36.73899       36.796708      36.502917    
   1273000   393.85864      535.89493      36.73899       36.796708      36.502917    
   1274000   397.69772      305.4131       36.73899       36.796708      36.502917    
   1275000   396.65548      304.99262      36.73899       36.796708      36.502917    
   1276000   393.9714       442.06431      36.73899       36.796708      36.502917    
   1277000   399.39844      206.42732      36.73899       36.796708      36.502917    
   1278000   390.98027      560.70869      36.73899       36.796708      36.502917    
   1279000   381.06023      1115.1662      36.73899       36.796708      36.502917    
   1280000   390.00767      735.8014       36.73899       36.796708      36.502917    
   1281000   389.6841       673.57493      36.73899       36.796708      36.502917    
   1282000   393.83975      540.80451      36.73899       36.796708      36.502917    
   1283000   392.28258      715.26324      36.73899       36.796708      36.502917    
   1284000   394.09213      462.14747      36.73899       36.796708      36.502917    
   1285000   393.74227      546.88228      36.73899       36.796708      36.502917    
   1286000   401.51827      165.98383      36.73899       36.796708      36.502917    
   1287000   395.43686      391.57121      36.73899       36.796708      36.502917    
   1288000   390.91121      592.92905      36.73899       36.796708      36.502917    
   1289000   389.58235      668.77594      36.73899       36.796708      36.502917    
   1290000   403.41587     -7.9390943      36.73899       36.796708      36.502917    
   1291000   392.10931      461.56267      36.73899       36.796708      36.502917    
   1292000   394.44001      324.02486      36.73899       36.796708      36.502917    
   1293000   391.34876      590.69742      36.73899       36.796708      36.502917    
   1294000   393.90261      413.49579      36.73899       36.796708      36.502917    
   1295000   394.38064      370.21118      36.73899       36.796708      36.502917    
   1296000   385.41697      835.95002      36.73899       36.796708      36.502917    
   1297000   386.93967      726.10927      36.73899       36.796708      36.502917    
   1298000   388.76377      696.64015      36.73899       36.796708      36.502917    
   1299000   392.96834      523.84954      36.73899       36.796708      36.502917    
   1300000   384.26543      912.53271      36.73899       36.796708      36.502917    
   1301000   391.71693      568.83029      36.73899       36.796708      36.502917    
   1302000   394.64854      259.01291      36.73899       36.796708      36.502917    
   1303000   387.97334      748.83731      36.73899       36.796708      36.502917    
   1304000   391.40916      674.35494      36.73899       36.796708      36.502917    
   1305000   390.93372      666.55078      36.73899       36.796708      36.502917    
   1306000   399.7942       205.24524      36.73899       36.796708      36.502917    
   1307000   391.35208      607.98947      36.73899       36.796708      36.502917    
   1308000   392.02086      569.4642       36.73899       36.796708      36.502917    
   1309000   392.89239      579.49426      36.73899       36.796708      36.502917    
   1310000   393.61541      753.03905      36.73899       36.796708      36.502917    
   1311000   393.68084      620.35513      36.73899       36.796708      36.502917    
   1312000   399.95711      287.3928       36.73899       36.796708      36.502917    
   1313000   391.96076      545.96776      36.73899       36.796708      36.502917    
   1314000   392.75184      606.92867      36.73899       36.796708      36.502917    
   1315000   388.74858      726.39451      36.73899       36.796708      36.502917    
   1316000   392.37942      575.15784      36.73899       36.796708      36.502917    
   1317000   394.54419      461.54958      36.73899       36.796708      36.502917    
   1318000   387.86558      823.74223      36.73899       36.796708      36.502917    
   1319000   384.61496      991.19378      36.73899       36.796708      36.502917    
   1320000   393.77064      580.70798      36.73899       36.796708      36.502917    
   1321000   382.93983      991.43899      36.73899       36.796708      36.502917    
   1322000   388.98571      784.23128      36.73899       36.796708      36.502917    
   1323000   393.14295      565.36242      36.73899       36.796708      36.502917    
   1324000   392.48025      537.07507      36.73899       36.796708      36.502917    
   1325000   387.8492       803.43165      36.73899       36.796708      36.502917    
   1326000   391.14625      610.27155      36.73899       36.796708      36.502917    
   1327000   389.54159      771.31825      36.73899       36.796708      36.502917    
   1328000   391.06078      722.75506      36.73899       36.796708      36.502917    
   1329000   391.75521      696.68867      36.73899       36.796708      36.502917    
   1330000   394.98046      502.62321      36.73899       36.796708      36.502917    
   1331000   397.36446      404.28786      36.73899       36.796708      36.502917    
   1332000   390.79468      696.22104      36.73899       36.796708      36.502917    
   1333000   396.3108       365.46497      36.73899       36.796708      36.502917    
   1334000   388.82084      902.55857      36.73899       36.796708      36.502917    
   1335000   387.22255      900.08243      36.73899       36.796708      36.502917    
   1336000   387.5896       799.6079       36.73899       36.796708      36.502917    
   1337000   392.82726      551.5179       36.73899       36.796708      36.502917    
   1338000   393.32879      585.52117      36.73899       36.796708      36.502917    
   1339000   390.83664      778.81142      36.73899       36.796708      36.502917    
   1340000   395.45193      525.78979      36.73899       36.796708      36.502917    
   1341000   394.75155      544.84958      36.73899       36.796708      36.502917    
   1342000   401.36051      229.48395      36.73899       36.796708      36.502917    
   1343000   394.11366      538.46025      36.73899       36.796708      36.502917    
   1344000   390.74327      788.49986      36.73899       36.796708      36.502917    
   1345000   390.51365      799.47395      36.73899       36.796708      36.502917    
   1346000   392.66226      441.39655      36.73899       36.796708      36.502917    
   1347000   396.85142      516.45478      36.73899       36.796708      36.502917    
   1348000   395.70792      451.43163      36.73899       36.796708      36.502917    
   1349000   398.71733      452.75508      36.73899       36.796708      36.502917    
   1350000   395.20574      557.37309      36.73899       36.796708      36.502917    
   1351000   389.47476      944.00894      36.73899       36.796708      36.502917    
   1352000   394.75624      587.06266      36.73899       36.796708      36.502917    
   1353000   389.00046      970.15216      36.73899       36.796708      36.502917    
   1354000   388.0173       894.22047      36.73899       36.796708      36.502917    
   1355000   383.46969      1190.0614      36.73899       36.796708      36.502917    
   1356000   398.75911      377.20872      36.73899       36.796708      36.502917    
   1357000   389.69879      851.07094      36.73899       36.796708      36.502917    
   1358000   387.27702      973.20556      36.73899       36.796708      36.502917    
   1359000   395.33132      561.84392      36.73899       36.796708      36.502917    
   1360000   382.24108      1214.5615      36.73899       36.796708      36.502917    
   1361000   390.00074      901.46871      36.73899       36.796708      36.502917    
   1362000   399.01043      372.73422      36.73899       36.796708      36.502917    
   1363000   396.21921      483.13592      36.73899       36.796708      36.502917    
   1364000   389.35555      781.29103      36.73899       36.796708      36.502917    
   1365000   383.24577      1088.4302      36.73899       36.796708      36.502917    
   1366000   398.16496      422.44452      36.73899       36.796708      36.502917    
   1367000   378.35304      1494.051       36.73899       36.796708      36.502917    
   1368000   388.55872      867.17297      36.73899       36.796708      36.502917    
   1369000   391.3417       931.32486      36.73899       36.796708      36.502917    
   1370000   382.30759      1334.419       36.73899       36.796708      36.502917    
   1371000   381.8583       1302.8731      36.73899       36.796708      36.502917    
   1372000   391.80095      770.32024      36.73899       36.796708      36.502917    
   1373000   388.26794      992.17355      36.73899       36.796708      36.502917    
   1374000   402.24247      220.57205      36.73899       36.796708      36.502917    
   1375000   396.85348      527.28864      36.73899       36.796708      36.502917    
   1376000   394.77382      628.11053      36.73899       36.796708      36.502917    
   1377000   389.58387      851.00018      36.73899       36.796708      36.502917    
   1378000   385.00268      1106.6481      36.73899       36.796708      36.502917    
   1379000   395.03802      789.88611      36.73899       36.796708      36.502917    
   1380000   399.00125      456.39213      36.73899       36.796708      36.502917    
   1381000   388.63344      928.95065      36.73899       36.796708      36.502917    
   1382000   390.50486      694.04245      36.73899       36.796708      36.502917    
   1383000   388.57465      894.31309      36.73899       36.796708      36.502917    
   1384000   388.55677      816.1645       36.73899       36.796708      36.502917    
   1385000   398.23107      441.14978      36.73899       36.796708      36.502917    
   1386000   397.12286      387.44985      36.73899       36.796708      36.502917    
   1387000   388.77647      1010.3232      36.73899       36.796708      36.502917    
   1388000   389.11389      881.4261       36.73899       36.796708      36.502917    
   1389000   383.76492      1131.5218      36.73899       36.796708      36.502917    
   1390000   389.86186      849.75153      36.73899       36.796708      36.502917    
   1391000   391.80728      768.39918      36.73899       36.796708      36.502917    
   1392000   396.47207      458.53294      36.73899       36.796708      36.502917    
   1393000   393.70891      612.95015      36.73899       36.796708      36.502917    
   1394000   395.0339       584.62439      36.73899       36.796708      36.502917    
   1395000   386.35672      957.68512      36.73899       36.796708      36.502917    
   1396000   389.88956      840.49516      36.73899       36.796708      36.502917    
   1397000   387.00936      964.24213      36.73899       36.796708      36.502917    
   1398000   390.08878      772.94888      36.73899       36.796708      36.502917    
   1399000   389.3111       826.25993      36.73899       36.796708      36.502917    
   1400000   389.72819      903.10549      36.73899       36.796708      36.502917    
   1401000   394.52036      684.0836       36.73899       36.796708      36.502917    
   1402000   390.97304      733.66947      36.73899       36.796708      36.502917    
   1403000   394.70104      634.09476      36.73899       36.796708      36.502917    
   1404000   393.38957      721.36123      36.73899       36.796708      36.502917    
   1405000   394.78195      599.73922      36.73899       36.796708      36.502917    
   1406000   398.16448      411.94747      36.73899       36.796708      36.502917    
   1407000   394.01594      655.1266       36.73899       36.796708      36.502917    
   1408000   392.3286       656.14245      36.73899       36.796708      36.502917    
   1409000   395.21076      437.7809       36.73899       36.796708      36.502917    
   1410000   390.2542       708.84947      36.73899       36.796708      36.502917    
   1411000   397.67628      467.6827       36.73899       36.796708      36.502917    
   1412000   397.88557      405.87742      36.73899       36.796708      36.502917    
   1413000   386.31198      1048.719       36.73899       36.796708      36.502917    
   1414000   392.35698      701.62545      36.73899       36.796708      36.502917    
   1415000   394.49504      443.06773      36.73899       36.796708      36.502917    
   1416000   391.22039      639.31988      36.73899       36.796708      36.502917    
   1417000   396.99029      287.78697      36.73899       36.796708      36.502917    
   1418000   393.36549      596.23629      36.73899       36.796708      36.502917    
   1419000   397.34248      456.92705      36.73899       36.796708      36.502917    
   1420000   387.64264      978.79067      36.73899       36.796708      36.502917    
   1421000   390.9047       757.23198      36.73899       36.796708      36.502917    
   1422000   390.90396      758.00097      36.73899       36.796708      36.502917    
   1423000   389.6056       827.21477      36.73899       36.796708      36.502917    
   1424000   394.87321      517.05276      36.73899       36.796708      36.502917    
   1425000   392.51787      690.69548      36.73899       36.796708      36.502917    
   1426000   399.00493      393.65721      36.73899       36.796708      36.502917    
   1427000   386.83916      867.72755      36.73899       36.796708      36.502917    
   1428000   392.9539       618.32181      36.73899       36.796708      36.502917    
   1429000   393.31471      541.343        36.73899       36.796708      36.502917    
   1430000   393.74076      653.56286      36.73899       36.796708      36.502917    
   1431000   384.44512      1157.0371      36.73899       36.796708      36.502917    
   1432000   389.35142      930.95785      36.73899       36.796708      36.502917    
   1433000   390.78555      806.62168      36.73899       36.796708      36.502917    
   1434000   395.25653      523.77519      36.73899       36.796708      36.502917    
   1435000   390.18649      730.60445      36.73899       36.796708      36.502917    
   1436000   388.99342      861.14085      36.73899       36.796708      36.502917    
   1437000   387.87869      866.89374      36.73899       36.796708      36.502917    
   1438000   387.29935      964.28576      36.73899       36.796708      36.502917    
   1439000   388.36239      947.85336      36.73899       36.796708      36.502917    
   1440000   390.90642      706.9056       36.73899       36.796708      36.502917    
   1441000   390.28274      776.20002      36.73899       36.796708      36.502917    
   1442000   390.93168      807.45803      36.73899       36.796708      36.502917    
   1443000   391.24267      601.06039      36.73899       36.796708      36.502917    
   1444000   396.43118      495.94595      36.73899       36.796708      36.502917    
   1445000   395.56317      571.40204      36.73899       36.796708      36.502917    
   1446000   395.82524      533.33566      36.73899       36.796708      36.502917    
   1447000   402.49382      158.2543       36.73899       36.796708      36.502917    
   1448000   390.51468      837.78379      36.73899       36.796708      36.502917    
   1449000   390.96381      797.66228      36.73899       36.796708      36.502917    
   1450000   397.89637      370.86332      36.73899       36.796708      36.502917    
   1451000   394.79667      490.30492      36.73899       36.796708      36.502917    
   1452000   394.56383      429.61335      36.73899       36.796708      36.502917    
   1453000   391.84904      602.34206      36.73899       36.796708      36.502917    
   1454000   394.39672      446.86926      36.73899       36.796708      36.502917    
   1455000   387.65791      793.55106      36.73899       36.796708      36.502917    
   1456000   393.0901       556.7579       36.73899       36.796708      36.502917    
   1457000   393.43189      478.62586      36.73899       36.796708      36.502917    
   1458000   385.73033      951.19532      36.73899       36.796708      36.502917    
   1459000   392.99617      480.11197      36.73899       36.796708      36.502917    
   1460000   386.59073      771.32235      36.73899       36.796708      36.502917    
   1461000   394.58355      352.3575       36.73899       36.796708      36.502917    
   1462000   395.36297      410.94169      36.73899       36.796708      36.502917    
   1463000   395.29313      546.01173      36.73899       36.796708      36.502917    
   1464000   387.81347      973.2493       36.73899       36.796708      36.502917    
   1465000   393.25823      648.16762      36.73899       36.796708      36.502917    
   1466000   392.73444      755.36456      36.73899       36.796708      36.502917    
   1467000   387.6796       837.08802      36.73899       36.796708      36.502917    
   1468000   401.50589      19.129201      36.73899       36.796708      36.502917    
   1469000   389.27665      780.03887      36.73899       36.796708      36.502917    
   1470000   399.96343      232.45343      36.73899       36.796708      36.502917    
   1471000   397.23991      451.13857      36.73899       36.796708      36.502917    
   1472000   388.26995      801.42978      36.73899       36.796708      36.502917    
   1473000   395.06471      508.79875      36.73899       36.796708      36.502917    
   1474000   398.83407      333.95606      36.73899       36.796708      36.502917    
   1475000   396.07013      337.48854      36.73899       36.796708      36.502917    
   1476000   397.89234      375.11448      36.73899       36.796708      36.502917    
   1477000   387.75637      766.86818      36.73899       36.796708      36.502917    
   1478000   391.90595      531.16219      36.73899       36.796708      36.502917    
   1479000   390.26302      689.81358      36.73899       36.796708      36.502917    
   1480000   396.49416      514.85552      36.73899       36.796708      36.502917    
   1481000   388.24869      729.8101       36.73899       36.796708      36.502917    
   1482000   383.76375      1007.3409      36.73899       36.796708      36.502917    
   1483000   382.71781      1082.9437      36.73899       36.796708      36.502917    
   1484000   395.428        455.38844      36.73899       36.796708      36.502917    
   1485000   396.83637      286.7039       36.73899       36.796708      36.502917    
   1486000   384.25782      918.36216      36.73899       36.796708      36.502917    
   1487000   388.7301       640.79854      36.73899       36.796708      36.502917    
   1488000   398.92281      132.52027      36.73899       36.796708      36.502917    
   1489000   390.92417      532.6018       36.73899       36.796708      36.502917    
   1490000   395.10236      542.56782      36.73899       36.796708      36.502917    
   1491000   389.38176      698.28989      36.73899       36.796708      36.502917    
   1492000   387.91537      871.36849      36.73899       36.796708      36.502917    
   1493000   396.82362      370.13774      36.73899       36.796708      36.502917    
   1494000   390.78005      709.74367      36.73899       36.796708      36.502917    
   1495000   391.31157      656.41712      36.73899       36.796708      36.502917    
   1496000   389.30809      840.79654      36.73899       36.796708      36.502917    
   1497000   385.18921      1116.6597      36.73899       36.796708      36.502917    
   1498000   399.08196      340.24894      36.73899       36.796708      36.502917    
   1499000   395.41528      660.44592      36.73899       36.796708      36.502917    
   1500000   392.27805      673.81665      36.73899       36.796708      36.502917    
Loop time of 156.741 on 40 procs for 500000 steps with 2592 atoms

Performance: 275.613 ns/day, 0.087 hours/ns, 3189.966 timesteps/s, 8.268 Matom-step/s
89.8% CPU use with 40 MPI tasks x no OpenMP threads

MPI task timing breakdown:
Section |  min time  |  avg time  |  max time  |%varavg| %total
---------------------------------------------------------------
Pair    | 40.634     | 48.72      | 54.645     |  52.8 | 31.08
Neigh   | 4.6246     | 5.3032     | 5.8424     |  12.7 |  3.38
Comm    | 77.165     | 82.855     | 90.208     |  37.6 | 52.86
Output  | 0.013657   | 0.014356   | 0.021574   |   1.0 |  0.01
Modify  | 10.789     | 12.839     | 14.992     |  37.8 |  8.19
Other   |            | 7.01       |            |       |  4.47

Nlocal:           64.8 ave          77 max          56 min
Histogram: 4 4 5 7 7 5 4 1 1 2
Nghost:        1614.78 ave        1655 max        1563 min
Histogram: 4 0 2 3 9 5 0 8 4 5
Neighs:        7755.05 ave        9458 max        6150 min
Histogram: 2 1 3 4 12 7 9 0 0 2

Total # of neighbors = 310202
Ave neighs/atom = 119.6767
Neighbor list builds = 24332
Dangerous builds = 0

CITE-CITE-CITE-CITE-CITE-CITE-CITE-CITE-CITE-CITE-CITE-CITE-CITE

Your simulation uses code contributions which should be cited:
- compute centroid/stress/atom for angles, impropers and dihedrals: doi:10.1103/PhysRevE.99.051301
- compute centroid/stress/atom for constrained dynamics: doi:10.1063/5.0070930
The log file lists these citations in BibTeX format.

CITE-CITE-CITE-CITE-CITE-CITE-CITE-CITE-CITE-CITE-CITE-CITE-CITE

Generated 0 of 1 mixed pair_coeff terms from geometric mixing rule
WARNING: More than one compute ke/atom (../compute_ke_atom.cpp:51)
WARNING: More than one compute ke/atom (../compute_ke_atom.cpp:51)
WARNING: More than one compute ke/atom (../compute_ke_atom.cpp:51)
Setting up Verlet run ...
  Unit style    : metal
  Current step  : 0
  Time step     : 0.001
Per MPI rank memory allocation (min/avg/max) = 8.396 | 8.411 | 8.418 Mbytes
   Step          Temp          Press            Lx             Ly             Lz      
         0   392.27805      673.81665      36.73899       36.796708      36.502917    
      1000   393.37668      583.29734      36.73899       36.796708      36.502917    
      2000   391.69963      579.54707      36.73899       36.796708      36.502917    
      3000   386.78298      826.99449      36.73899       36.796708      36.502917    
      4000   389.98336      683.59033      36.73899       36.796708      36.502917    
      5000   395.45378      410.84518      36.73899       36.796708      36.502917    
      6000   397.17445      403.64697      36.73899       36.796708      36.502917    
      7000   385.07261      1004.2524      36.73899       36.796708      36.502917    
      8000   399.86832      193.99109      36.73899       36.796708      36.502917    
      9000   387.53548      1042.0757      36.73899       36.796708      36.502917    
     10000   389.41543      830.23209      36.73899       36.796708      36.502917    
     11000   394.58376      501.49274      36.73899       36.796708      36.502917    
     12000   391.31395      891.68604      36.73899       36.796708      36.502917    
     13000   383.45521      1163.0975      36.73899       36.796708      36.502917    
     14000   392.7427       703.27704      36.73899       36.796708      36.502917    
     15000   392.33515      660.14902      36.73899       36.796708      36.502917    
     16000   391.47633      838.55675      36.73899       36.796708      36.502917    
     17000   387.31357      905.16202      36.73899       36.796708      36.502917    
     18000   393.90629      766.34174      36.73899       36.796708      36.502917    
     19000   393.22745      796.65486      36.73899       36.796708      36.502917    
     20000   389.85995      1036.4164      36.73899       36.796708      36.502917    
     21000   390.91637      898.70027      36.73899       36.796708      36.502917    
     22000   392.87633      633.42283      36.73899       36.796708      36.502917    
     23000   394.8787       471.3108       36.73899       36.796708      36.502917    
     24000   401.27232      294.27007      36.73899       36.796708      36.502917    
     25000   399.91397      171.37138      36.73899       36.796708      36.502917    
     26000   385.26102      892.49974      36.73899       36.796708      36.502917    
     27000   397.82767      302.71892      36.73899       36.796708      36.502917    
     28000   392.5092       559.08868      36.73899       36.796708      36.502917    
     29000   396.80394      454.50574      36.73899       36.796708      36.502917    
     30000   394.6118       396.48599      36.73899       36.796708      36.502917    
     31000   393.35774      627.31913      36.73899       36.796708      36.502917    
     32000   396.8584       383.7361       36.73899       36.796708      36.502917    
     33000   392.07815      594.09038      36.73899       36.796708      36.502917    
     34000   401.28371      94.606407      36.73899       36.796708      36.502917    
     35000   396.66017      479.00963      36.73899       36.796708      36.502917    
     36000   397.55848      434.7935       36.73899       36.796708      36.502917    
     37000   386.70584      955.76129      36.73899       36.796708      36.502917    
     38000   382.75112      1176.7983      36.73899       36.796708      36.502917    
     39000   389.51837      894.22667      36.73899       36.796708      36.502917    
     40000   401.00756      203.24829      36.73899       36.796708      36.502917    
     41000   396.70492      453.87894      36.73899       36.796708      36.502917    
     42000   387.85809      935.73167      36.73899       36.796708      36.502917    
     43000   390.03233      888.30622      36.73899       36.796708      36.502917    
     44000   387.30035      948.11218      36.73899       36.796708      36.502917    
     45000   395.58671      480.53724      36.73899       36.796708      36.502917    
     46000   394.12369      548.42201      36.73899       36.796708      36.502917    
     47000   388.4289       774.22345      36.73899       36.796708      36.502917    
     48000   394.28164      510.6167       36.73899       36.796708      36.502917    
     49000   391.84156      531.75003      36.73899       36.796708      36.502917    
     50000   394.84813      364.39615      36.73899       36.796708      36.502917    
     51000   394.18077      374.69826      36.73899       36.796708      36.502917    
     52000   384.95904      925.17888      36.73899       36.796708      36.502917    
     53000   386.63543      932.5871       36.73899       36.796708      36.502917    
     54000   389.93862      751.51502      36.73899       36.796708      36.502917    
     55000   393.1362       582.70423      36.73899       36.796708      36.502917    
     56000   384.34838      963.61213      36.73899       36.796708      36.502917    
     57000   383.50667      985.72956      36.73899       36.796708      36.502917    
     58000   386.55214      942.45601      36.73899       36.796708      36.502917    
     59000   389.24408      826.25654      36.73899       36.796708      36.502917    
     60000   399.66683      259.86162      36.73899       36.796708      36.502917    
     61000   387.69606      781.39838      36.73899       36.796708      36.502917    
     62000   393.79152      714.5563       36.73899       36.796708      36.502917    
     63000   394.45918      478.4906       36.73899       36.796708      36.502917    
     64000   394.24683      573.81579      36.73899       36.796708      36.502917    
     65000   398.91262      305.74149      36.73899       36.796708      36.502917    
     66000   386.86352      825.08597      36.73899       36.796708      36.502917    
     67000   386.04189      870.73516      36.73899       36.796708      36.502917    
     68000   396.32874      499.65177      36.73899       36.796708      36.502917    
     69000   394.25666      640.41304      36.73899       36.796708      36.502917    
     70000   390.98698      746.1593       36.73899       36.796708      36.502917    
     71000   392.8746       606.33903      36.73899       36.796708      36.502917    
     72000   394.27914      449.97839      36.73899       36.796708      36.502917    
     73000   394.67331      429.93432      36.73899       36.796708      36.502917    
     74000   390.9062       648.73273      36.73899       36.796708      36.502917    
     75000   388.82722      774.61413      36.73899       36.796708      36.502917    
     76000   391.01852      631.32385      36.73899       36.796708      36.502917    
     77000   391.39363      675.93845      36.73899       36.796708      36.502917    
     78000   400.06988      243.85379      36.73899       36.796708      36.502917    
     79000   406.87752     -200.86416      36.73899       36.796708      36.502917    
     80000   394.36993      506.77202      36.73899       36.796708      36.502917    
     81000   397.80055      359.69254      36.73899       36.796708      36.502917    
     82000   392.98929      671.49114      36.73899       36.796708      36.502917    
     83000   391.36089      821.47802      36.73899       36.796708      36.502917    
     84000   386.17807      943.81187      36.73899       36.796708      36.502917    
     85000   394.38503      541.09751      36.73899       36.796708      36.502917    
     86000   395.29807      474.65176      36.73899       36.796708      36.502917    
     87000   392.30256      686.1115       36.73899       36.796708      36.502917    
     88000   393.48154      699.43549      36.73899       36.796708      36.502917    
     89000   394.31034      696.36903      36.73899       36.796708      36.502917    
     90000   389.09512      897.1835       36.73899       36.796708      36.502917    
     91000   385.72906      1069.8353      36.73899       36.796708      36.502917    
     92000   397.64954      483.95783      36.73899       36.796708      36.502917    
     93000   393.2897       711.81806      36.73899       36.796708      36.502917    
     94000   389.77907      737.16872      36.73899       36.796708      36.502917    
     95000   392.10495      787.01403      36.73899       36.796708      36.502917    
     96000   386.97616      952.58301      36.73899       36.796708      36.502917    
     97000   397.0453       433.33246      36.73899       36.796708      36.502917    
     98000   398.53701      434.88716      36.73899       36.796708      36.502917    
     99000   390.12832      816.52976      36.73899       36.796708      36.502917    
    100000   386.31249      879.87717      36.73899       36.796708      36.502917    
    101000   399.3977       251.53977      36.73899       36.796708      36.502917    
    102000   395.504        399.11129      36.73899       36.796708      36.502917    
    103000   396.50546      294.54775      36.73899       36.796708      36.502917    
    104000   397.29323      386.53203      36.73899       36.796708      36.502917    
    105000   396.60501      528.47796      36.73899       36.796708      36.502917    
    106000   385.95631      951.02848      36.73899       36.796708      36.502917    
    107000   389.9319       733.47767      36.73899       36.796708      36.502917    
    108000   396.58572      498.83256      36.73899       36.796708      36.502917    
    109000   385.28053      1035.0671      36.73899       36.796708      36.502917    
    110000   389.67023      921.11719      36.73899       36.796708      36.502917    
    111000   394.952        570.35067      36.73899       36.796708      36.502917    
    112000   385.32226      1023.9355      36.73899       36.796708      36.502917    
    113000   393.47815      550.87657      36.73899       36.796708      36.502917    
    114000   395.2938       596.40286      36.73899       36.796708      36.502917    
    115000   395.79956      446.28494      36.73899       36.796708      36.502917    
    116000   394.02651      545.79954      36.73899       36.796708      36.502917    
    117000   395.25605      592.1636       36.73899       36.796708      36.502917    
    118000   392.45637      557.77064      36.73899       36.796708      36.502917    
    119000   393.49384      609.74742      36.73899       36.796708      36.502917    
    120000   394.72504      582.46077      36.73899       36.796708      36.502917    
    121000   391.77988      832.20097      36.73899       36.796708      36.502917    
    122000   395.91833      543.02651      36.73899       36.796708      36.502917    
    123000   387.80564      942.71645      36.73899       36.796708      36.502917    
    124000   389.21272      863.01278      36.73899       36.796708      36.502917    
    125000   395.6222       491.10593      36.73899       36.796708      36.502917    
    126000   389.53756      899.44709      36.73899       36.796708      36.502917    
    127000   385.88834      969.86659      36.73899       36.796708      36.502917    
    128000   388.34076      840.88027      36.73899       36.796708      36.502917    
    129000   393.40425      533.86585      36.73899       36.796708      36.502917    
    130000   387.73425      1026.4173      36.73899       36.796708      36.502917    
    131000   397.69182      478.73672      36.73899       36.796708      36.502917    
    132000   396.64376      570.50968      36.73899       36.796708      36.502917    
    133000   399.45157      429.53576      36.73899       36.796708      36.502917    
    134000   394.93798      663.96487      36.73899       36.796708      36.502917    
    135000   394.56558      510.67121      36.73899       36.796708      36.502917    
    136000   389.53445      804.31726      36.73899       36.796708      36.502917    
    137000   406.32186     -84.335812      36.73899       36.796708      36.502917    
    138000   399.9363       235.26822      36.73899       36.796708      36.502917    
    139000   389.22553      906.29112      36.73899       36.796708      36.502917    
    140000   384.66363      1007.4706      36.73899       36.796708      36.502917    
    141000   392.59142      596.5824       36.73899       36.796708      36.502917    
    142000   398.0362       433.28684      36.73899       36.796708      36.502917    
    143000   395.87609      556.41809      36.73899       36.796708      36.502917    
    144000   392.74808      680.32171      36.73899       36.796708      36.502917    
    145000   397.31127      397.39918      36.73899       36.796708      36.502917    
    146000   394.40803      470.63853      36.73899       36.796708      36.502917    
    147000   390.15073      662.10313      36.73899       36.796708      36.502917    
    148000   387.24228      959.09689      36.73899       36.796708      36.502917    
    149000   399.5298       227.77758      36.73899       36.796708      36.502917    
    150000   391.12427      675.80225      36.73899       36.796708      36.502917    
    151000   391.07158      604.87378      36.73899       36.796708      36.502917    
    152000   392.93027      519.63806      36.73899       36.796708      36.502917    
    153000   384.87897      836.52958      36.73899       36.796708      36.502917    
    154000   397.04987      281.48542      36.73899       36.796708      36.502917    
    155000   398.0339       294.47492      36.73899       36.796708      36.502917    
    156000   390.85229      704.78716      36.73899       36.796708      36.502917    
    157000   402.24765      34.802536      36.73899       36.796708      36.502917    
    158000   392.87781      553.41648      36.73899       36.796708      36.502917    
    159000   389.94466      842.92517      36.73899       36.796708      36.502917    
    160000   397.51936      529.28552      36.73899       36.796708      36.502917    
    161000   393.55657      644.44682      36.73899       36.796708      36.502917    
    162000   390.90534      877.33875      36.73899       36.796708      36.502917    
    163000   392.53467      882.12101      36.73899       36.796708      36.502917    
    164000   394.5199       605.93883      36.73899       36.796708      36.502917    
    165000   390.77524      910.01962      36.73899       36.796708      36.502917    
    166000   391.88629      759.16705      36.73899       36.796708      36.502917    
    167000   393.04344      650.21775      36.73899       36.796708      36.502917    
    168000   393.79882      553.34318      36.73899       36.796708      36.502917    
    169000   394.40707      585.55546      36.73899       36.796708      36.502917    
    170000   397.10622      424.30327      36.73899       36.796708      36.502917    
    171000   393.32629      648.6488       36.73899       36.796708      36.502917    
    172000   389.87051      847.58479      36.73899       36.796708      36.502917    
    173000   393.0193       625.77416      36.73899       36.796708      36.502917    
    174000   391.88889      650.66492      36.73899       36.796708      36.502917    
    175000   393.16975      668.01023      36.73899       36.796708      36.502917    
    176000   399.08688      450.6026       36.73899       36.796708      36.502917    
    177000   393.44978      645.16293      36.73899       36.796708      36.502917    
    178000   389.55344      774.54763      36.73899       36.796708      36.502917    
    179000   391.42783      569.28182      36.73899       36.796708      36.502917    
    180000   396.57513      471.29891      36.73899       36.796708      36.502917    
    181000   390.39029      815.12017      36.73899       36.796708      36.502917    
    182000   388.59099      913.84341      36.73899       36.796708      36.502917    
    183000   394.05293      595.35875      36.73899       36.796708      36.502917    
    184000   399.05768      196.05463      36.73899       36.796708      36.502917    
    185000   391.28737      531.88782      36.73899       36.796708      36.502917    
    186000   390.04356      769.38776      36.73899       36.796708      36.502917    
    187000   384.84351      950.89225      36.73899       36.796708      36.502917    
    188000   392.42258      498.04441      36.73899       36.796708      36.502917    
    189000   394.758        457.69075      36.73899       36.796708      36.502917    
    190000   389.74753      731.90616      36.73899       36.796708      36.502917    
    191000   396.05394      315.39889      36.73899       36.796708      36.502917    
    192000   390.0619       645.61526      36.73899       36.796708      36.502917    
    193000   394.79562      435.86989      36.73899       36.796708      36.502917    
    194000   393.77377      599.75951      36.73899       36.796708      36.502917    
    195000   384.84952      973.49853      36.73899       36.796708      36.502917    
    196000   391.42156      724.21127      36.73899       36.796708      36.502917    
    197000   390.78785      682.59044      36.73899       36.796708      36.502917    
    198000   386.49891      913.34287      36.73899       36.796708      36.502917    
    199000   387.78191      725.25407      36.73899       36.796708      36.502917    
    200000   396.98938      341.59257      36.73899       36.796708      36.502917    
    201000   391.28632      644.66336      36.73899       36.796708      36.502917    
    202000   387.30447      817.5844       36.73899       36.796708      36.502917    
    203000   389.37379      621.36628      36.73899       36.796708      36.502917    
    204000   392.12509      581.58956      36.73899       36.796708      36.502917    
    205000   384.01515      891.25967      36.73899       36.796708      36.502917    
    206000   392.03498      532.53514      36.73899       36.796708      36.502917    
    207000   391.10138      668.81656      36.73899       36.796708      36.502917    
    208000   397.60846      366.9389       36.73899       36.796708      36.502917    
    209000   394.60718      437.18842      36.73899       36.796708      36.502917    
    210000   389.64491      768.15931      36.73899       36.796708      36.502917    
    211000   388.2398       825.27171      36.73899       36.796708      36.502917    
    212000   396.25254      423.6495       36.73899       36.796708      36.502917    
    213000   384.59096      1001.0381      36.73899       36.796708      36.502917    
    214000   396.68748      450.8796       36.73899       36.796708      36.502917    
    215000   396.71183      478.03571      36.73899       36.796708      36.502917    
    216000   390.67641      720.40199      36.73899       36.796708      36.502917    
    217000   394.07146      623.84765      36.73899       36.796708      36.502917    
    218000   399.58626      247.96666      36.73899       36.796708      36.502917    
    219000   381.25639      1142.4186      36.73899       36.796708      36.502917    
    220000   395.34244      461.4659       36.73899       36.796708      36.502917    
    221000   397.50147      298.41004      36.73899       36.796708      36.502917    
    222000   393.27598      548.23261      36.73899       36.796708      36.502917    
    223000   391.35848      635.41488      36.73899       36.796708      36.502917    
    224000   389.88338      852.70024      36.73899       36.796708      36.502917    
    225000   395.66808      522.41204      36.73899       36.796708      36.502917    
    226000   394.07131      547.72046      36.73899       36.796708      36.502917    
    227000   388.06092      915.69202      36.73899       36.796708      36.502917    
    228000   387.50009      878.774        36.73899       36.796708      36.502917    
    229000   390.38041      833.70029      36.73899       36.796708      36.502917    
    230000   392.21898      626.01224      36.73899       36.796708      36.502917    
    231000   390.46691      759.78673      36.73899       36.796708      36.502917    
    232000   387.88939      987.56385      36.73899       36.796708      36.502917    
    233000   397.44708      414.60632      36.73899       36.796708      36.502917    
    234000   397.17876      437.21092      36.73899       36.796708      36.502917    
    235000   389.31647      706.3867       36.73899       36.796708      36.502917    
    236000   389.77199      761.02298      36.73899       36.796708      36.502917    
    237000   395.89338      445.27543      36.73899       36.796708      36.502917    
    238000   389.55404      783.05264      36.73899       36.796708      36.502917    
    239000   381.55872      1068.8298      36.73899       36.796708      36.502917    
    240000   392.12199      555.8549       36.73899       36.796708      36.502917    
    241000   395.18458      410.0868       36.73899       36.796708      36.502917    
    242000   390.72222      667.08746      36.73899       36.796708      36.502917    
    243000   389.12229      829.43781      36.73899       36.796708      36.502917    
    244000   391.30683      707.16069      36.73899       36.796708      36.502917    
    245000   395.08383      390.97858      36.73899       36.796708      36.502917    
    246000   394.15637      528.87869      36.73899       36.796708      36.502917    
    247000   393.9024       440.79708      36.73899       36.796708      36.502917    
    248000   387.69224      932.56857      36.73899       36.796708      36.502917    
    249000   394.09526      632.02635      36.73899       36.796708      36.502917    
    250000   394.94355      586.22927      36.73899       36.796708      36.502917    
    251000   394.25335      598.04007      36.73899       36.796708      36.502917    
    252000   391.49068      769.8297       36.73899       36.796708      36.502917    
    253000   398.54071      440.9159       36.73899       36.796708      36.502917    
    254000   391.07058      729.95101      36.73899       36.796708      36.502917    
    255000   392.29391      820.5989       36.73899       36.796708      36.502917    
    256000   391.68298      789.58053      36.73899       36.796708      36.502917    
    257000   397.49822      473.9051       36.73899       36.796708      36.502917    
    258000   394.89969      649.57114      36.73899       36.796708      36.502917    
    259000   394.91755      554.07983      36.73899       36.796708      36.502917    
    260000   402.31703      65.417646      36.73899       36.796708      36.502917    
    261000   397.06842      390.47319      36.73899       36.796708      36.502917    
    262000   391.61385      630.43602      36.73899       36.796708      36.502917    
    263000   390.57732      726.48798      36.73899       36.796708      36.502917    
    264000   391.06091      778.31131      36.73899       36.796708      36.502917    
    265000   394.06356      575.34561      36.73899       36.796708      36.502917    
    266000   395.5847       545.58315      36.73899       36.796708      36.502917    
    267000   394.30879      573.90043      36.73899       36.796708      36.502917    
    268000   393.67375      560.95322      36.73899       36.796708      36.502917    
    269000   391.44504      714.81184      36.73899       36.796708      36.502917    
    270000   394.56942      397.67657      36.73899       36.796708      36.502917    
    271000   384.54814      1077.4667      36.73899       36.796708      36.502917    
    272000   393.83355      490.12711      36.73899       36.796708      36.502917    
    273000   390.12773      685.72389      36.73899       36.796708      36.502917    
    274000   396.68449      272.83576      36.73899       36.796708      36.502917    
    275000   387.11924      962.05603      36.73899       36.796708      36.502917    
    276000   387.27846      960.89509      36.73899       36.796708      36.502917    
    277000   385.77019      1041.5757      36.73899       36.796708      36.502917    
    278000   389.45074      803.59847      36.73899       36.796708      36.502917    
    279000   389.24653      862.07941      36.73899       36.796708      36.502917    
    280000   388.57952      840.80786      36.73899       36.796708      36.502917    
    281000   400.97397      56.124813      36.73899       36.796708      36.502917    
    282000   392.80746      510.35351      36.73899       36.796708      36.502917    
    283000   393.60494      694.24575      36.73899       36.796708      36.502917    
    284000   390.74471      765.21801      36.73899       36.796708      36.502917    
    285000   401.36695      100.91455      36.73899       36.796708      36.502917    
    286000   392.0303       713.45902      36.73899       36.796708      36.502917    
    287000   389.96057      793.59032      36.73899       36.796708      36.502917    
    288000   396.77313      326.15082      36.73899       36.796708      36.502917    
    289000   393.05879      490.9883       36.73899       36.796708      36.502917    
    290000   402.54519      156.26127      36.73899       36.796708      36.502917    
    291000   391.55319      568.59439      36.73899       36.796708      36.502917    
    292000   387.46699      900.66319      36.73899       36.796708      36.502917    
    293000   386.28561      853.85471      36.73899       36.796708      36.502917    
    294000   397.63912      278.52202      36.73899       36.796708      36.502917    
    295000   390.74779      688.57488      36.73899       36.796708      36.502917    
    296000   386.89847      960.47386      36.73899       36.796708      36.502917    
    297000   394.01357      544.02321      36.73899       36.796708      36.502917    
    298000   394.32355      488.59986      36.73899       36.796708      36.502917    
    299000   397.79515      345.90667      36.73899       36.796708      36.502917    
    300000   393.35956      451.11877      36.73899       36.796708      36.502917    
    301000   395.45448      381.87028      36.73899       36.796708      36.502917    
    302000   391.00718      545.41188      36.73899       36.796708      36.502917    
    303000   387.5655       894.05617      36.73899       36.796708      36.502917    
    304000   393.44534      584.90689      36.73899       36.796708      36.502917    
    305000   401.81818      142.24904      36.73899       36.796708      36.502917    
    306000   397.19532      431.97778      36.73899       36.796708      36.502917    
    307000   392.09677      746.1025       36.73899       36.796708      36.502917    
    308000   390.39696      773.00823      36.73899       36.796708      36.502917    
    309000   392.80531      647.0003       36.73899       36.796708      36.502917    
    310000   398.16685      311.75348      36.73899       36.796708      36.502917    
    311000   396.34017      343.81632      36.73899       36.796708      36.502917    
    312000   385.76004      975.88849      36.73899       36.796708      36.502917    
    313000   391.87844      597.78422      36.73899       36.796708      36.502917    
    314000   394.46965      492.70739      36.73899       36.796708      36.502917    
    315000   389.78789      740.4725       36.73899       36.796708      36.502917    
    316000   391.37296      599.0059       36.73899       36.796708      36.502917    
    317000   392.95168      568.00964      36.73899       36.796708      36.502917    
    318000   394.4192       565.15696      36.73899       36.796708      36.502917    
    319000   392.89597      642.29689      36.73899       36.796708      36.502917    
    320000   389.62311      797.2613       36.73899       36.796708      36.502917    
    321000   400.54924      233.63969      36.73899       36.796708      36.502917    
    322000   392.35437      526.18405      36.73899       36.796708      36.502917    
    323000   402.32029      45.328732      36.73899       36.796708      36.502917    
    324000   391.50028      665.87709      36.73899       36.796708      36.502917    
    325000   393.01189      617.19632      36.73899       36.796708      36.502917    
    326000   394.39794      388.23705      36.73899       36.796708      36.502917    
    327000   389.64707      613.78789      36.73899       36.796708      36.502917    
    328000   393.24878      679.34912      36.73899       36.796708      36.502917    
    329000   394.03893      582.68494      36.73899       36.796708      36.502917    
    330000   387.07881      937.82028      36.73899       36.796708      36.502917    
    331000   392.87756      649.50552      36.73899       36.796708      36.502917    
    332000   386.08979      881.79362      36.73899       36.796708      36.502917    
    333000   390.77773      736.85649      36.73899       36.796708      36.502917    
    334000   397.95033      394.09314      36.73899       36.796708      36.502917    
    335000   378.38922      1292.2387      36.73899       36.796708      36.502917    
    336000   396.29927      530.08413      36.73899       36.796708      36.502917    
    337000   397.58179      421.51069      36.73899       36.796708      36.502917    
    338000   387.97454      834.72426      36.73899       36.796708      36.502917    
    339000   392.40828      646.27431      36.73899       36.796708      36.502917    
    340000   397.79098      443.78755      36.73899       36.796708      36.502917    
    341000   394.04534      481.10897      36.73899       36.796708      36.502917    
    342000   399.75211      227.26607      36.73899       36.796708      36.502917    
    343000   393.05479      527.62574      36.73899       36.796708      36.502917    
    344000   394.5379       584.02603      36.73899       36.796708      36.502917    
    345000   386.40365      1029.3024      36.73899       36.796708      36.502917    
    346000   389.96184      841.32595      36.73899       36.796708      36.502917    
    347000   398.71298      333.79558      36.73899       36.796708      36.502917    
    348000   390.971        613.09251      36.73899       36.796708      36.502917    
    349000   396.66117      369.76706      36.73899       36.796708      36.502917    
    350000   398.18353      434.94593      36.73899       36.796708      36.502917    
    351000   388.75156      802.9477       36.73899       36.796708      36.502917    
    352000   393.38022      557.58653      36.73899       36.796708      36.502917    
    353000   393.01696      567.09867      36.73899       36.796708      36.502917    
    354000   401.06664      104.63359      36.73899       36.796708      36.502917    
    355000   399.11748      218.81766      36.73899       36.796708      36.502917    
    356000   396.0782       331.14532      36.73899       36.796708      36.502917    
    357000   392.7988       526.22328      36.73899       36.796708      36.502917    
    358000   391.39284      634.81666      36.73899       36.796708      36.502917    
    359000   393.85368      454.86285      36.73899       36.796708      36.502917    
    360000   403.70488      123.08299      36.73899       36.796708      36.502917    
    361000   393.61214      603.96465      36.73899       36.796708      36.502917    
    362000   396.59746      431.69212      36.73899       36.796708      36.502917    
    363000   389.54659      789.5779       36.73899       36.796708      36.502917    
    364000   390.19461      635.49925      36.73899       36.796708      36.502917    
    365000   386.31234      1010.7128      36.73899       36.796708      36.502917    
    366000   396.22515      491.03607      36.73899       36.796708      36.502917    
    367000   388.54421      841.18245      36.73899       36.796708      36.502917    
    368000   385.66222      962.5718       36.73899       36.796708      36.502917    
    369000   381.00185      1224.9728      36.73899       36.796708      36.502917    
    370000   399.73773      183.11856      36.73899       36.796708      36.502917    
    371000   395.00789      456.73594      36.73899       36.796708      36.502917    
    372000   398.77527      194.93849      36.73899       36.796708      36.502917    
    373000   392.4579       547.33273      36.73899       36.796708      36.502917    
    374000   392.47256      578.47619      36.73899       36.796708      36.502917    
    375000   396.14653      417.83001      36.73899       36.796708      36.502917    
    376000   394.39142      509.98217      36.73899       36.796708      36.502917    
    377000   388.78829      819.67224      36.73899       36.796708      36.502917    
    378000   389.86568      577.90114      36.73899       36.796708      36.502917    
    379000   389.11677      682.66151      36.73899       36.796708      36.502917    
    380000   396.69819      254.11313      36.73899       36.796708      36.502917    
    381000   391.77019      659.23243      36.73899       36.796708      36.502917    
    382000   397.37027      333.0188       36.73899       36.796708      36.502917    
    383000   392.20005      551.91313      36.73899       36.796708      36.502917    
    384000   396.14363      459.35251      36.73899       36.796708      36.502917    
    385000   394.69913      387.99638      36.73899       36.796708      36.502917    
    386000   396.80171      194.17677      36.73899       36.796708      36.502917    
    387000   388.68316      788.77553      36.73899       36.796708      36.502917    
    388000   394.56747      498.76506      36.73899       36.796708      36.502917    
    389000   393.62327      585.97658      36.73899       36.796708      36.502917    
    390000   395.47862      386.18666      36.73899       36.796708      36.502917    
    391000   389.78252      674.16245      36.73899       36.796708      36.502917    
    392000   393.81904      522.06632      36.73899       36.796708      36.502917    
    393000   395.71618      436.8041       36.73899       36.796708      36.502917    
    394000   394.98071      413.92254      36.73899       36.796708      36.502917    
    395000   394.68023      425.69208      36.73899       36.796708      36.502917    
    396000   393.32198      491.61512      36.73899       36.796708      36.502917    
    397000   398.62866      378.66961      36.73899       36.796708      36.502917    
    398000   386.81122      956.14066      36.73899       36.796708      36.502917    
    399000   400.53199      188.85311      36.73899       36.796708      36.502917    
    400000   386.43019      1010.1523      36.73899       36.796708      36.502917    
    401000   399.95618      275.18816      36.73899       36.796708      36.502917    
    402000   397.98302      368.1874       36.73899       36.796708      36.502917    
    403000   392.25488      613.61537      36.73899       36.796708      36.502917    
    404000   396.20065      416.07077      36.73899       36.796708      36.502917    
    405000   389.77961      699.02554      36.73899       36.796708      36.502917    
    406000   400.06776      193.52279      36.73899       36.796708      36.502917    
    407000   395.97507      381.14334      36.73899       36.796708      36.502917    
    408000   392.24183      643.61478      36.73899       36.796708      36.502917    
    409000   390.45303      756.4956       36.73899       36.796708      36.502917    
    410000   390.83998      724.63923      36.73899       36.796708      36.502917    
    411000   388.29189      870.41734      36.73899       36.796708      36.502917    
    412000   394.28637      485.05382      36.73899       36.796708      36.502917    
    413000   394.76004      507.78972      36.73899       36.796708      36.502917    
    414000   398.06144      302.42409      36.73899       36.796708      36.502917    
    415000   392.93332      517.59101      36.73899       36.796708      36.502917    
    416000   395.44136      468.27476      36.73899       36.796708      36.502917    
    417000   396.88144      305.40454      36.73899       36.796708      36.502917    
    418000   396.40852      323.23418      36.73899       36.796708      36.502917    
    419000   397.39837      261.31336      36.73899       36.796708      36.502917    
    420000   391.45892      809.83685      36.73899       36.796708      36.502917    
    421000   391.43482      728.11605      36.73899       36.796708      36.502917    
    422000   388.86054      706.8907       36.73899       36.796708      36.502917    
    423000   396.03891      426.74157      36.73899       36.796708      36.502917    
    424000   398.05631      395.42354      36.73899       36.796708      36.502917    
    425000   397.07994      221.11118      36.73899       36.796708      36.502917    
    426000   392.53901      461.5867       36.73899       36.796708      36.502917    
    427000   391.8464       496.75859      36.73899       36.796708      36.502917    
    428000   390.398        551.73499      36.73899       36.796708      36.502917    
    429000   396.81572      355.83695      36.73899       36.796708      36.502917    
    430000   395.41238      443.69898      36.73899       36.796708      36.502917    
    431000   392.77396      453.97053      36.73899       36.796708      36.502917    
    432000   391.91915      536.95188      36.73899       36.796708      36.502917    
    433000   386.28447      825.0421       36.73899       36.796708      36.502917    
    434000   388.70747      751.43891      36.73899       36.796708      36.502917    
    435000   398.78323      223.83906      36.73899       36.796708      36.502917    
    436000   395.35841      464.19541      36.73899       36.796708      36.502917    
    437000   395.77786      437.02479      36.73899       36.796708      36.502917    
    438000   386.45041      913.87431      36.73899       36.796708      36.502917    
    439000   398.22587      417.47149      36.73899       36.796708      36.502917    
    440000   384.28254      1018.5793      36.73899       36.796708      36.502917    
    441000   393.29204      553.76526      36.73899       36.796708      36.502917    
    442000   400.86332      290.22026      36.73899       36.796708      36.502917    
    443000   394.34636      629.81501      36.73899       36.796708      36.502917    
    444000   402.37702      34.253008      36.73899       36.796708      36.502917    
    445000   392.41235      594.56514      36.73899       36.796708      36.502917    
    446000   393.80179      623.44244      36.73899       36.796708      36.502917    
    447000   394.71463      561.71487      36.73899       36.796708      36.502917    
    448000   395.56115      485.82163      36.73899       36.796708      36.502917    
    449000   383.3577       1122.9993      36.73899       36.796708      36.502917    
    450000   395.66632      430.33049      36.73899       36.796708      36.502917    
    451000   394.89408      420.19848      36.73899       36.796708      36.502917    
    452000   400.27663      71.611633      36.73899       36.796708      36.502917    
    453000   400.33473      101.634        36.73899       36.796708      36.502917    
    454000   401.82089      21.464254      36.73899       36.796708      36.502917    
    455000   396.45321      277.01252      36.73899       36.796708      36.502917    
    456000   391.51029      607.31549      36.73899       36.796708      36.502917    
    457000   390.0628       717.8678       36.73899       36.796708      36.502917    
    458000   391.50088      458.2363       36.73899       36.796708      36.502917    
    459000   389.61806      671.86768      36.73899       36.796708      36.502917    
    460000   386.65479      827.5062       36.73899       36.796708      36.502917    
    461000   391.53824      512.97968      36.73899       36.796708      36.502917    
    462000   388.8897       748.46321      36.73899       36.796708      36.502917    
    463000   396.63785      359.23034      36.73899       36.796708      36.502917    
    464000   393.37736      557.42067      36.73899       36.796708      36.502917    
    465000   396.67088      345.3032       36.73899       36.796708      36.502917    
    466000   396.85419      377.53107      36.73899       36.796708      36.502917    
    467000   390.80022      656.47741      36.73899       36.796708      36.502917    
    468000   392.33554      506.38235      36.73899       36.796708      36.502917    
    469000   397.13988      306.25618      36.73899       36.796708      36.502917    
    470000   399.48629      60.507077      36.73899       36.796708      36.502917    
    471000   396.59521      311.68195      36.73899       36.796708      36.502917    
    472000   393.86826      585.62052      36.73899       36.796708      36.502917    
    473000   392.75651      704.34007      36.73899       36.796708      36.502917    
    474000   392.34038      522.08279      36.73899       36.796708      36.502917    
    475000   389.77423      834.39371      36.73899       36.796708      36.502917    
    476000   396.42352      470.48884      36.73899       36.796708      36.502917    
    477000   401.2466       237.85116      36.73899       36.796708      36.502917    
    478000   392.27021      726.1183       36.73899       36.796708      36.502917    
    479000   392.69478      703.84276      36.73899       36.796708      36.502917    
    480000   386.70368      973.64613      36.73899       36.796708      36.502917    
    481000   394.1569       642.86974      36.73899       36.796708      36.502917    
    482000   391.62308      812.94314      36.73899       36.796708      36.502917    
    483000   394.70482      588.08559      36.73899       36.796708      36.502917    
    484000   394.17617      533.59772      36.73899       36.796708      36.502917    
    485000   393.32235      592.73843      36.73899       36.796708      36.502917    
    486000   391.59144      732.25321      36.73899       36.796708      36.502917    
    487000   387.4932       912.34903      36.73899       36.796708      36.502917    
    488000   390.12624      781.25117      36.73899       36.796708      36.502917    
    489000   383.77137      1198.2326      36.73899       36.796708      36.502917    
    490000   392.2681       669.50026      36.73899       36.796708      36.502917    
    491000   391.68308      638.80186      36.73899       36.796708      36.502917    
    492000   388.23954      829.70902      36.73899       36.796708      36.502917    
    493000   390.33184      735.79212      36.73899       36.796708      36.502917    
    494000   390.32711      783.53697      36.73899       36.796708      36.502917    
    495000   402.62171      113.53393      36.73899       36.796708      36.502917    
    496000   389.8058       789.40552      36.73899       36.796708      36.502917    
    497000   401.54982      204.18218      36.73899       36.796708      36.502917    
    498000   384.82355      924.22821      36.73899       36.796708      36.502917    
    499000   385.17119      970.50515      36.73899       36.796708      36.502917    
    500000   396.59942      324.18331      36.73899       36.796708      36.502917    
Loop time of 209.463 on 40 procs for 500000 steps with 2592 atoms

Performance: 206.242 ns/day, 0.116 hours/ns, 2387.056 timesteps/s, 6.187 Matom-step/s
87.6% CPU use with 40 MPI tasks x no OpenMP threads

MPI task timing breakdown:
Section |  min time  |  avg time  |  max time  |%varavg| %total
---------------------------------------------------------------
Pair    | 54.471     | 58.473     | 66.667     |  37.4 | 27.92
Neigh   | 4.993      | 5.3575     | 6.0119     |  10.4 |  2.56
Comm    | 77.618     | 84.805     | 89.284     |  27.4 | 40.49
Output  | 0.018205   | 0.018814   | 0.021567   |   0.4 |  0.01
Modify  | 50.831     | 52.965     | 55.175     |  19.0 | 25.29
Other   |            | 7.845      |            |       |  3.75

Nlocal:           64.8 ave          76 max          57 min
Histogram: 3 4 7 6 5 9 2 0 2 2
Nghost:        1624.03 ave        1709 max        1567 min
Histogram: 7 7 2 1 10 6 3 0 0 4
Neighs:        7747.82 ave        9274 max        7034 min
Histogram: 8 9 3 10 2 4 0 1 1 2

Total # of neighbors = 309913
Ave neighs/atom = 119.5652
Neighbor list builds = 24419
Dangerous builds = 0
Program is finished successfully
Total wall time: 0:11:45
