# LAMMPS data file written by OVITO Basic 3.9.2

12 atoms
2 atom types

0.0 6.585060723 xlo xhi
0.0 6.585060723 ylo yhi
0.0 6.585060723 zlo zhi

Masses

1 107.8682  # Ag
2 127.6  # Te

Atoms  # atomic

1 1 4.9387955423 1.6462651807 1.6462651807
2 1 1.6462651807 4.9387955423 1.6462651807
3 1 1.6462651807 1.6462651807 4.9387955423
4 1 4.9387955423 4.9387955423 4.9387955423
5 1 1.6462651807 1.6462651807 1.6462651807
6 1 4.9387955423 4.9387955423 1.6462651807
7 1 4.9387955423 1.6462651807 4.9387955423
8 1 1.6462651807 4.9387955423 4.9387955423
9 2 0.0 0.0 0.0
10 2 3.2925303615 3.2925303615 0.0
11 2 3.2925303615 0.0 3.2925303615
12 2 0.0 3.2925303615 3.2925303615
