LAMMPS (2 Aug 2023 - Update 1)
Reading data file ...
  orthogonal box = (0 0 0) to (6.5850607 6.5850607 6.5850607)
  2 by 4 by 5 MPI processor grid
  reading atoms ...
  12 atoms
  read_data CPU = 0.022 seconds
Replication is creating a 6x6x6 = 216 times larger system...
  orthogonal box = (0 0 0) to (39.510364 39.510364 39.510364)
  2 by 4 by 5 MPI processor grid
  2592 atoms
  replicate CPU = 0.002 seconds
1728 atoms in group Ag
864 atoms in group Te
Generated 0 of 1 mixed pair_coeff terms from geometric mixing rule
Neighbor list info ...
  update: every = 1 steps, delay = 0 steps, check = yes
  max neighbors/atom: 2000, page size: 100000
  master list distance cutoff = 10.3
  ghost atom cutoff = 10.3
  binsize = 5.15, bins = 8 8 8
  1 neighbor lists, perpetual/occasional/extra = 1 0 0
  (1) pair lj/cut, perpetual
      attributes: half, newton on
      pair build: half/bin/atomonly/newton
      stencil: half/bin/3d
      bin: standard
Setting up Verlet run ...
  Unit style    : metal
  Current step  : 0
  Time step     : 0.001
Per MPI rank memory allocation (min/avg/max) = 3.123 | 3.128 | 3.13 Mbytes
   Step          Temp          Press            Lx             Ly             Lz      
         0   400           -95782.829      39.510364      39.510364      39.510364    
      1000   407.05159      153.41549      36.679784      36.694889      36.692359    
      2000   401.59221      84.749569      36.682584      36.727448      36.692293    
      3000   394.27329      46.473087      36.691684      36.683314      36.696242    
      4000   417.40463     -374.58534      36.73099       36.702255      36.701878    
      5000   411.77799     -678.34883      36.795119      36.694054      36.642419    
      6000   405.54111      614.16269      36.631646      36.76776       36.675289    
      7000   410.87867      342.22817      36.707957      36.666831      36.722061    
      8000   397.56109      1329.9647      36.714408      36.710679      36.632566    
      9000   402.72546      1268.8026      36.646627      36.644107      36.753878    
     10000   404.7168       1113.6559      36.715569      36.635407      36.713605    
     11000   403.88489      366.5424       36.701888      36.720022      36.699984    
     12000   397.67829      1073.9049      36.704954      36.730083      36.634152    
     13000   397.87637      761.90085      36.681491      36.713059      36.716018    
     14000   387.77752     -408.5271       36.740166      36.667811      36.751291    
     15000   400.87753     -603.78141      36.678601      36.731412      36.7782      
     16000   393.63589     -439.46009      36.747848      36.714614      36.686105    
     17000   398.22857     -1331.5754      36.715834      36.755479      36.738955    
     18000   388.08742     -1269.7364      36.666058      36.800994      36.733126    
     19000   392.03128     -637.66894      36.766761      36.689254      36.716331    
     20000   396.13938     -1218.4169      36.671803      36.801252      36.710075    
     21000   397.14867     -1040.9743      36.774684      36.657795      36.746927    
     22000   411.95311      380.0181       36.690989      36.72025       36.713841    
     23000   406.96482      1881.6249      36.766464      36.658455      36.657294    
     24000   403.05364      1645.539       36.676478      36.673397      36.732746    
     25000   400.20566      2258.0946      36.711929      36.679935      36.686384    
     26000   402.79742     -82.946414      36.760974      36.652376      36.733822    
     27000   400.83088     -128.88745      36.704026      36.757464      36.685021    
     28000   398.91879      91.30586       36.734982      36.738481      36.679188    
     29000   395.61836     -583.72366      36.712432      36.650701      36.80398     
     30000   396.37428     -166.72539      36.730078      36.686539      36.740024    
     31000   400.17216      160.87032      36.67657       36.718057      36.747216    
     32000   402.57863     -1653.904       36.716006      36.779406      36.703065    
     33000   405.71556     -1750.7054      36.721529      36.671328      36.809525    
     34000   389.22872     -912.94527      36.745754      36.693198      36.706731    
     35000   405.80672     -1249.7485      36.719519      36.617697      36.820502    
     36000   392.00614     -2732.7139      36.802684      36.714009      36.723341    
     37000   400.21216     -1336.5472      36.7766        36.666874      36.717576    
     38000   393.30341     -455.25888      36.731636      36.681628      36.705855    
     39000   395.95818      426.03368      36.725185      36.749663      36.613732    
     40000   404.32656      501.08499      36.78123       36.718238      36.582648    
     41000   413.86207     -341.3145       36.676139      36.720033      36.745327    
     42000   400.94356      62.82786       36.742224      36.666186      36.686727    
     43000   400.30705     -121.01445      36.783981      36.626173      36.69706     
     44000   387.7637      -503.54222      36.669635      36.748198      36.708858    
     45000   388.01286     -527.79672      36.736715      36.724561      36.674604    
     46000   412.32439      300.26075      36.657051      36.702673      36.768073    
     47000   394.13687      441.16123      36.655619      36.693835      36.741883    
     48000   382.19074     -1474.3952      36.774103      36.641892      36.759128    
     49000   396.96824     -1678.4603      36.72393       36.674723      36.765404    
     50000   403.51629     -49.961678      36.731744      36.650635      36.736012    
     51000   391.35915      707.44041      36.772897      36.675332      36.639438    
     52000   403.52496      1077.9575      36.702375      36.672944      36.701383    
     53000   388.43819      611.41242      36.835623      36.579109      36.700682    
     54000   390.74189      233.10708      36.767477      36.694991      36.655141    
     55000   397.59232     -184.57872      36.721346      36.686958      36.736208    
     56000   399.91485      372.42498      36.756661      36.687335      36.65419     
     57000   410.44973      267.6365       36.685847      36.730167      36.686515    
     58000   414.03108      531.1206       36.800516      36.6423        36.682896    
     59000   398.71181     -543.32543      36.745606      36.697562      36.698224    
     60000   400.8495      -1326.2771      36.786578      36.684656      36.686144    
     61000   398.95863     -1463.7715      36.72205       36.691957      36.768752    
     62000   409.19434     -702.75792      36.805349      36.63446       36.704864    
     63000   394.59482      97.190258      36.759801      36.627776      36.71538     
     64000   395.25757      691.42181      36.753857      36.706393      36.625692    
     65000   407.24567     -625.90704      36.763995      36.641108      36.701184    
     66000   388.62488     -291.53346      36.689751      36.716317      36.70606     
     67000   401.55512      230.29096      36.697538      36.658411      36.736516    
     68000   406.27219      2298.2307      36.693882      36.623053      36.707651    
     69000   409.48405      1457.0401      36.723525      36.687618      36.673217    
     70000   405.1315       1859.0552      36.614479      36.650336      36.778591    
     71000   402.81189      1236.2767      36.713295      36.71296       36.663647    
     72000   400.80091      1989.2878      36.779335      36.599758      36.664652    
     73000   391.6871       1801.8966      36.634671      36.772671      36.67726     
     74000   401.66998      257.04437      36.71213       36.658813      36.727861    
     75000   404.07139     -969.81949      36.713884      36.72121       36.736048    
     76000   397.73445     -773.28408      36.760911      36.607525      36.758376    
     77000   399.36052      1304.3764      36.65085       36.65737       36.790164    
     78000   395.07329      3145.0062      36.706784      36.640751      36.658998    
     79000   402.73605      866.63646      36.764948      36.565857      36.765451    
     80000   400.99289      632.34565      36.783115      36.576884      36.707561    
     81000   396.3329       197.01426      36.756883      36.647231      36.703306    
     82000   391.15022     -21.267076      36.731592      36.716023      36.661286    
     83000   400.66243     -167.36681      36.750389      36.609352      36.755703    
     84000   412.47595      1057.8302      36.643422      36.696702      36.737828    
     85000   405.22319      816.78555      36.818744      36.639241      36.62103     
     86000   399.37441     -1320.9554      36.742089      36.69839       36.702103    
     87000   384.93842      822.48638      36.743051      36.632887      36.698326    
     88000   390.65326     -746.20179      36.640875      36.733243      36.741595    
     89000   398.88037     -389.37941      36.669357      36.673524      36.763904    
     90000   396.53234     -575.08606      36.732082      36.59527       36.79969     
     91000   401.59432      1157.0148      36.765874      36.565637      36.733254    
     92000   398.37063      1595.8088      36.672014      36.621861      36.74521     
     93000   386.8086       284.22333      36.721386      36.66892       36.698211    
     94000   395.27077      624.00624      36.690125      36.637876      36.733101    
     95000   408.91608      625.99921      36.647362      36.68151       36.774344    
     96000   395.65383      706.60803      36.782471      36.679684      36.657686    
     97000   395.26274     -1199.2528      36.723432      36.653803      36.777749    
     98000   400.60278     -390.56629      36.651987      36.685612      36.790622    
     99000   398.55691      1161.3001      36.666624      36.641206      36.754108    
    100000   403.84175      1741.0582      36.735401      36.500654      36.806095    
    101000   406.70344     -836.24299      36.6551        36.69348       36.781761    
    102000   412.61968      382.2233       36.860843      36.5599        36.682656    
    103000   407.28769      298.2821       36.657473      36.673543      36.782943    
    104000   397.31857      443.36113      36.681017      36.586664      36.844259    
    105000   403.58854     -461.61404      36.692707      36.658465      36.779034    
    106000   400.49386     -1013.7684      36.624803      36.725146      36.799303    
    107000   413.94769     -1036.5067      36.753245      36.723247      36.678491    
    108000   398.8362       51.429896      36.673791      36.715693      36.700718    
    109000   413.2599       640.95871      36.659516      36.700963      36.713342    
    110000   397.58395      1726.4023      36.6759        36.648815      36.688435    
    111000   401.16302      1490.0187      36.727286      36.587736      36.743774    
    112000   398.364        922.06197      36.760906      36.57695       36.712493    
    113000   396.30443     -145.20302      36.753986      36.639595      36.702693    
    114000   397.24673     -1433.1419      36.756233      36.594473      36.796922    
    115000   390.93881     -87.531123      36.6999        36.635811      36.781967    
    116000   403.69113     -584.68394      36.653243      36.690166      36.781788    
    117000   389.97748     -561.25089      36.726181      36.634056      36.778631    
    118000   394.1258      -1479.7027      36.679281      36.667165      36.809835    
    119000   402.40847     -1321.2131      36.752705      36.632823      36.775949    
    120000   401.25425     -1242.3416      36.727545      36.690816      36.74495     
    121000   408.47643     -776.40549      36.666468      36.654589      36.841568    
    122000   402.70421     -432.28783      36.721035      36.65697       36.725805    
    123000   407.68761     -192.75102      36.757493      36.595245      36.769424    
    124000   399.39329      583.76237      36.687599      36.57504       36.824798    
    125000   397.18977      148.84585      36.703233      36.620892      36.772696    
    126000   402.58284     -496.91826      36.738823      36.625809      36.770421    
    127000   392.19528     -20.831292      36.643136      36.706417      36.735769    
    128000   400.98129      438.40952      36.783754      36.549176      36.764448    
    129000   392.60064      1007.7098      36.700498      36.596735      36.755895    
    130000   399.99685      1609.6583      36.637049      36.541111      36.842153    
    131000   396.93688      1193.6758      36.601345      36.689808      36.745746    
    132000   400.1722       1439.3016      36.748914      36.54945       36.763914    
    133000   402.18725      1558.1483      36.728666      36.568298      36.742985    
    134000   408.43774     -1007.4605      36.703911      36.563707      36.871939    
    135000   406.76681     -82.258525      36.731338      36.593101      36.776767    
    136000   409.04568      165.41972      36.654753      36.528314      36.88995     
    137000   387.88078      157.16864      36.772185      36.557476      36.750778    
    138000   413.03732      333.73063      36.657242      36.619163      36.808563    
    139000   404.02929      376.52518      36.680662      36.680833      36.710538    
    140000   407.35986      908.46819      36.734411      36.565633      36.774143    
    141000   410.16672      2578.902       36.686835      36.59927       36.748527    
    142000   400.4756       2088.6388      36.689576      36.533746      36.797847    
    143000   401.60068      717.84471      36.724899      36.606953      36.749487    
    144000   412.94729     -853.13048      36.721684      36.594319      36.801368    
    145000   413.0984      -103.24981      36.753711      36.633053      36.720705    
    146000   394.8662      -1433.4163      36.756505      36.667168      36.715212    
    147000   392.99354     -1326.0733      36.7743        36.554758      36.803516    
    148000   395.96321      495.32633      36.661897      36.587955      36.823672    
    149000   420.94384      121.68482      36.68355       36.649964      36.769894    
    150000   394.6377       192.14912      36.764509      36.519268      36.807152    
    151000   392.93385     -93.191898      36.748648      36.565763      36.779242    
    152000   407.48878      948.27552      36.729988      36.545786      36.80459     
    153000   400.37604      2114.7424      36.757323      36.575417      36.708951    
    154000   403.41561      1204.5767      36.655957      36.631699      36.770081    
    155000   406.42841      1003.8461      36.683244      36.586741      36.80006     
    156000   395.03446      795.21248      36.655776      36.603238      36.804289    
    157000   409.88267      679.28841      36.710712      36.561596      36.80043     
    158000   402.67347      160.82788      36.715527      36.626411      36.744588    
    159000   399.47516     -45.61597       36.731806      36.617472      36.759635    
    160000   411.84811      12.753534      36.726141      36.60955       36.774773    
    161000   412.60087      247.31899      36.700499      36.626066      36.773796    
    162000   399.1618      -139.87643      36.675379      36.669923      36.775229    
    163000   387.13694     -812.92094      36.675461      36.706448      36.758811    
    164000   395.10744     -1523.2943      36.672486      36.672608      36.807273    
    165000   392.21566     -155.57649      36.643268      36.650329      36.813519    
    166000   411.2522       527.19426      36.639488      36.567109      36.85465     
    167000   400.11262     -961.44259      36.70671       36.64271       36.760503    
    168000   402.83076      426.05484      36.556361      36.665347      36.878955    
    169000   394.42424      92.928215      36.752321      36.581222      36.757397    
    170000   401.27786      299.44052      36.748687      36.571674      36.752593    
    171000   406.45876     -415.28208      36.606116      36.68106       36.817123    
    172000   409.47364     -833.73247      36.691796      36.570833      36.843885    
    173000   392.73475      384.86787      36.730727      36.599888      36.740217    
    174000   394.45365     -693.12817      36.732797      36.65293       36.726902    
    175000   392.11511      495.83686      36.681835      36.591696      36.818668    
    176000   405.65374      1565.6712      36.648147      36.600893      36.773698    
    177000   404.09577      41.575735      36.694226      36.594699      36.798177    
    178000   401.86314      243.14154      36.660958      36.564123      36.84869     
    179000   399.63642      293.09866      36.695514      36.666822      36.710758    
    180000   394.75716     -631.06649      36.604254      36.645193      36.871371    
    181000   401.62303     -1111.5014      36.721085      36.57973       36.837396    
    182000   382.83034     -1815.1731      36.821756      36.634201      36.704285    
    183000   401.10667     -376.7076       36.710883      36.565597      36.850744    
    184000   402.15707     -71.435466      36.695013      36.613284      36.800554    
    185000   397.27161      1034.4752      36.67579       36.607309      36.789631    
    186000   401.99829      1014.5097      36.706295      36.603491      36.751036    
    187000   397.56379      418.2991       36.761343      36.609553      36.727864    
    188000   400.12121     -908.3785       36.67739       36.692064      36.753042    
    189000   401.09587     -203.81498      36.715415      36.692633      36.7268      
    190000   402.2503       1325.8474      36.687199      36.544446      36.814381    
    191000   401.47247      1002.6665      36.721793      36.608252      36.730569    
    192000   402.07406      1554.6842      36.762583      36.51442       36.771359    
    193000   398.418       -260.02026      36.694047      36.627494      36.794444    
    194000   399.35879      792.61021      36.623561      36.626648      36.839019    
    195000   399.93903     -392.50831      36.719125      36.565758      36.800856    
    196000   393.40845      119.95625      36.62467       36.680715      36.766333    
    197000   401.36862      228.25859      36.626104      36.62927       36.835427    
    198000   399.16786      836.9359       36.698595      36.604494      36.756475    
    199000   392.68735     -126.08079      36.697773      36.472142      36.927618    
    200000   393.65119      1700.6021      36.681062      36.630421      36.733395    
    201000   411.0964       1447.7698      36.679235      36.598641      36.755519    
    202000   396.60381      395.15785      36.68157       36.676097      36.732317    
    203000   391.26684     -207.47623      36.672967      36.615258      36.828713    
    204000   408.06449     -1473.9371      36.785081      36.606452      36.755135    
    205000   401.13994     -1015.6678      36.747205      36.67055       36.720298    
    206000   393.8778      -536.02007      36.677726      36.669278      36.782761    
    207000   397.62476     -739.241        36.685225      36.636135      36.836839    
    208000   406.42624     -923.42553      36.686875      36.597904      36.861229    
    209000   404.8794      -80.130404      36.721027      36.671021      36.701094    
    210000   389.14253      843.14555      36.801326      36.591916      36.668818    
    211000   400.66547      37.328495      36.752279      36.569675      36.773456    
    212000   400.38797     -747.24046      36.717729      36.613974      36.776977    
    213000   392.25675      91.491558      36.702821      36.613299      36.775253    
    214000   395.19139     -306.11992      36.655867      36.609589      36.831351    
    215000   405.96961      40.224766      36.682355      36.646985      36.75927     
    216000   418.38018      1096.6734      36.75138       36.545296      36.747826    
    217000   409.86986      540.26194      36.720364      36.65533       36.677897    
    218000   398.22694      2211.086       36.651463      36.588832      36.759575    
    219000   398.31154      1349.6811      36.682153      36.642144      36.713907    
    220000   397.53402     -676.40022      36.729281      36.662693      36.730286    
    221000   402.87611     -1670.071       36.679461      36.757602      36.71048     
    222000   397.18947     -163.65525      36.756876      36.603493      36.718796    
    223000   396.1719      -702.6634       36.689024      36.635015      36.81509     
    224000   400.86745     -197.37211      36.717219      36.688254      36.713807    
    225000   396.75635      1314.5517      36.695997      36.647851      36.696027    
    226000   401.15014      1751.3855      36.701433      36.594345      36.723605    
    227000   403.41352     -195.42843      36.664034      36.670496      36.760532    
    228000   404.75015     -964.60458      36.748633      36.577719      36.803953    
    229000   406.19027     -69.124909      36.674832      36.661665      36.761629    
    230000   394.78452     -387.83557      36.69748       36.675174      36.718033    
    231000   391.57892     -629.95006      36.721797      36.65926       36.742702    
    232000   393.73275     -1526.3754      36.722446      36.577155      36.827907    
    233000   398.9778      -1343.4037      36.687731      36.661223      36.812883    
    234000   399.20075     -434.5891       36.819846      36.607276      36.70635     
    235000   393.46761      474.5139       36.685464      36.622269      36.770379    
    236000   407.66484     -1794.7652      36.864074      36.688491      36.601533    
    237000   399.23731     -126.61008      36.679214      36.668479      36.767313    
    238000   401.14786     -1344.9751      36.766672      36.636822      36.736704    
    239000   398.58477     -1319.6267      36.788871      36.587359      36.762195    
    240000   401.02302      593.48193      36.672666      36.630132      36.771984    
    241000   394.63148      1876.0687      36.736296      36.69202       36.60019     
    242000   400.99755      447.18168      36.674771      36.665063      36.746074    
    243000   395.7432       1254.6405      36.74153       36.654285      36.620719    
    244000   404.31956      979.44016      36.667955      36.559429      36.840464    
    245000   395.05465      215.02409      36.745968      36.598779      36.739466    
    246000   399.30384     -804.95913      36.719065      36.651102      36.759019    
    247000   393.64395     -1834.4733      36.808452      36.579976      36.747036    
    248000   409.04935     -1331.0104      36.71959       36.61157       36.811025    
    249000   403.92909     -950.70187      36.787269      36.606053      36.759598    
    250000   404.05319      272.62002      36.817341      36.543479      36.750042    
    251000   391.18499      548.99419      36.734572      36.590526      36.760329    
    252000   402.73715      493.03932      36.718382      36.693251      36.653461    
    253000   412.69833      503.79087      36.690299      36.633196      36.764161    
    254000   395.60863     -536.91016      36.742256      36.625647      36.761972    
    255000   404.31169     -452.20586      36.660501      36.67565       36.778173    
    256000   409.24854     -3451.1687      36.771124      36.680088      36.797277    
    257000   390.44333     -954.12468      36.759992      36.567771      36.822992    
    258000   409.05097     -321.19835      36.738748      36.653428      36.70276     
    259000   389.60901      872.9105       36.743474      36.549699      36.766386    
    260000   393.9352       1026.3583      36.851845      36.561934      36.645284    
    261000   401.91862     -670.03559      36.703504      36.640701      36.767083    
    262000   396.51527     -2629.3918      36.693128      36.722985      36.779264    
    263000   395.99673     -1880.2325      36.804987      36.623767      36.736148    
    264000   392.47488     -1280.6487      36.772719      36.636033      36.710024    
    265000   393.99113      1143.9926      36.676308      36.670576      36.70422     
    266000   404.33125     -875.82315      36.778759      36.696274      36.628825    
    267000   401.49719     -293.16417      36.776736      36.561736      36.760942    
    268000   398.74362     -502.59113      36.727371      36.600321      36.785849    
    269000   397.54783     -941.54159      36.699747      36.706144      36.743258    
    270000   399.09505     -708.71788      36.644284      36.659977      36.834877    
    271000   404.45071     -1660.6378      36.774996      36.576413      36.791117    
    272000   399.95098     -328.59458      36.671566      36.686924      36.74237     
    273000   395.58618      328.67891      36.762883      36.522712      36.789878    
    274000   401.01283      961.10494      36.72154       36.518119      36.794782    
    275000   394.79485      1822.3664      36.616703      36.592755      36.819023    
    276000   400.97682      161.38294      36.691021      36.575855      36.839896    
    277000   401.25849     -1024.0397      36.686113      36.622465      36.824346    
    278000   404.91333     -1718.2343      36.753021      36.643132      36.760095    
    279000   394.65802      71.354346      36.751409      36.55701       36.778133    
    280000   400.67086     -763.51878      36.655052      36.662408      36.802851    
    281000   394.51723     -597.23655      36.713577      36.568306      36.818172    
    282000   399.108        717.72565      36.719956      36.629513      36.718887    
    283000   406.22594      693.20183      36.722312      36.60319       36.732481    
    284000   404.09217      128.92861      36.681838      36.571387      36.847387    
    285000   409.47176      1295.5221      36.662748      36.621877      36.768556    
    286000   394.80444     -175.80794      36.664429      36.61925       36.793501    
    287000   404.84054     -1610.6132      36.606208      36.762792      36.792919    
    288000   392.27817     -1972.4363      36.758716      36.626152      36.771379    
    289000   398.64423     -146.0226       36.628683      36.681115      36.782387    
    290000   405.1179      -538.9755       36.734435      36.572631      36.778393    
    291000   398.78228     -257.52859      36.704845      36.529944      36.847891    
    292000   391.55058      329.45495      36.63746       36.642963      36.82462     
    293000   398.83409     -202.70824      36.706139      36.538155      36.824874    
    294000   397.47716      1925.2132      36.643517      36.590963      36.781799    
    295000   404.15486      754.8229       36.661705      36.604679      36.771108    
    296000   403.90796      633.42947      36.595241      36.647039      36.838615    
    297000   398.82716      434.15035      36.728864      36.551665      36.784941    
    298000   390.23745      55.221591      36.638038      36.589348      36.857738    
    299000   401.02099      249.24907      36.6466        36.620322      36.817687    
    300000   402.35054     -117.63068      36.699012      36.567958      36.827692    
    301000   402.87876     -756.79484      36.633042      36.691592      36.762744    
    302000   395.19411     -686.00672      36.737425      36.552115      36.818689    
    303000   399.31509     -281.04816      36.672653      36.568477      36.849341    
    304000   397.71285     -1960.3134      36.727146      36.555694      36.88568     
    305000   384.97141     -1599.5579      36.733182      36.615104      36.784259    
    306000   394.58065     -772.68351      36.741954      36.5566        36.814499    
    307000   406.11432     -214.30295      36.656442      36.637745      36.823527    
    308000   390.73801     -388.25278      36.779625      36.562846      36.764904    
    309000   388.2893      -830.76057      36.687137      36.63355       36.782003    
    310000   395.46562     -338.69325      36.586767      36.651296      36.845458    
    311000   402.52739     -569.4217       36.64916       36.603385      36.847745    
    312000   404.32053      1198.0135      36.649033      36.594237      36.807572    
    313000   404.30985     -1273.0106      36.641566      36.618889      36.859996    
    314000   405.5446      -1156.9591      36.704247      36.654922      36.752831    
    315000   405.89792     -620.85977      36.686922      36.616132      36.799588    
    316000   403.96746      1896.6635      36.616935      36.666764      36.749896    
    317000   399.14805      962.75894      36.66345       36.557767      36.830472    
    318000   405.68521      68.613518      36.662362      36.584077      36.811864    
    319000   402.28079      1468.4644      36.649061      36.514907      36.870686    
    320000   403.66859     -547.93241      36.675435      36.569417      36.855592    
    321000   405.19005      15.475886      36.705606      36.507731      36.861711    
    322000   392.24666      1651.3454      36.589767      36.59912       36.84228     
    323000   406.58891     -15.461506      36.783311      36.577193      36.753226    
    324000   389.84817      738.49568      36.62598       36.505665      36.933914    
    325000   398.89224     -610.356        36.575346      36.662205      36.865929    
    326000   399.31666     -633.99633      36.6777        36.582731      36.866166    
    327000   402.67886     -1861.3259      36.691047      36.577043      36.911783    
    328000   391.966       -926.1127       36.660081      36.640004      36.855097    
    329000   397.94506     -523.17912      36.721202      36.560134      36.825861    
    330000   401.60511     -897.18951      36.714637      36.618627      36.801871    
    331000   393.94817     -909.55762      36.681364      36.616973      36.815083    
    332000   411.35713      604.87671      36.617718      36.525131      36.914201    
    333000   407.64294      2060.5784      36.646876      36.601021      36.797866    
    334000   403.48928      410.00571      36.688497      36.547556      36.846643    
    335000   402.53513     -1759.362       36.775082      36.586262      36.802169    
    336000   394.88997     -645.28366      36.6774        36.5341        36.88456     
    337000   402.06895     -1092.572       36.721263      36.576327      36.822905    
    338000   388.78361     -1379.2236      36.592183      36.655949      36.89601     
    339000   403.11128      175.68884      36.762693      36.575928      36.738184    
    340000   392.12363     -397.25336      36.688003      36.603025      36.828782    
    341000   400.85009     -762.75836      36.643003      36.661265      36.823288    
    342000   401.80286     -890.78418      36.648749      36.614689      36.860694    
    343000   391.30958     -1084.225       36.598579      36.659837      36.859398    
    344000   392.26241     -2109.15        36.589451      36.677568      36.909971    
    345000   403.15005     -61.055653      36.588053      36.603409      36.9118      
    346000   397.51827      676.39272      36.622326      36.609869      36.832942    
    347000   395.95863      6.7411473      36.676993      36.55951       36.836941    
    348000   392.03145     -240.00394      36.715169      36.509492      36.857376    
    349000   401.08754      31.425307      36.611697      36.616345      36.853155    
    350000   401.43158      185.46562      36.708595      36.526815      36.837968    
    351000   403.62103      512.08683      36.606338      36.61952       36.821794    
    352000   402.02186      1370.4494      36.584149      36.518376      36.919998    
    353000   398.14763      1992.3688      36.608543      36.58771       36.839851    
    354000   401.97437      722.99097      36.657168      36.530559      36.847845    
    355000   392.15306      2023.7844      36.588181      36.579817      36.827351    
    356000   410.48455      2920.4056      36.611162      36.492367      36.850343    
    357000   397.30303      1121.6913      36.648615      36.611977      36.781699    
    358000   399.20192      976.8047       36.657666      36.540078      36.839949    
    359000   395.77836      1327.325       36.595448      36.657053      36.786374    
    360000   397.33457      864.79049      36.473223      36.599952      36.973166    
    361000   401.57644      298.40292      36.584408      36.604886      36.869303    
    362000   396.80695      237.26709      36.494954      36.703715      36.889135    
    363000   412.77436      1163.0401      36.704251      36.563069      36.776387    
    364000   391.16224      98.513994      36.645492      36.5717        36.875398    
    365000   396.18852     -454.90277      36.669508      36.623437      36.794564    
    366000   406.62759      889.90544      36.657527      36.582796      36.797727    
    367000   393.05823      1659.1411      36.598613      36.585548      36.827626    
    368000   398.74518      2948.3327      36.599741      36.566588      36.811715    
    369000   402.4164       1468.9804      36.599633      36.582238      36.854304    
    370000   394.40183     -657.11042      36.635957      36.601785      36.836709    
    371000   400.03975      796.91068      36.563627      36.649182      36.84871     
    372000   397.83309      622.43806      36.650169      36.584939      36.831409    
    373000   394.86313      902.44381      36.556007      36.628192      36.869503    
    374000   403.66016      229.42078      36.60545       36.574105      36.850366    
    375000   405.27119      1094.9456      36.567055      36.583038      36.877833    
    376000   394.30549      1163.3241      36.615769      36.59754       36.813571    
    377000   402.77873      1735.1543      36.709365      36.45686       36.850847    
    378000   395.01182      714.41961      36.606633      36.665388      36.780478    
    379000   403.22363      342.90921      36.618206      36.632063      36.800456    
    380000   402.51723      402.19486      36.571236      36.6493        36.830992    
    381000   406.17687     -838.21853      36.594372      36.664482      36.863826    
    382000   398.61092      607.81651      36.548503      36.635925      36.881607    
    383000   393.04758      1456.0267      36.600364      36.487724      36.932143    
    384000   400.16211      207.23205      36.606041      36.570151      36.899686    
    385000   400.70588     -1796.5035      36.631641      36.501524      37.014306    
    386000   396.78328     -762.66063      36.593164      36.573558      36.948129    
    387000   397.84757      154.24921      36.617255      36.567901      36.90696     
    388000   413.71603     -996.37795      36.60842       36.538886      36.953273    
    389000   405.36137     -1882.1207      36.530484      36.585402      37.013188    
    390000   403.95137     -1446.1523      36.623317      36.600751      36.900345    
    391000   401.96785      83.011523      36.590491      36.445357      37.045859    
    392000   406.23637      716.00097      36.536334      36.540589      36.985345    
    393000   399.274        1582.7869      36.504009      36.55258       36.947325    
    394000   394.6287      -230.44268      36.672         36.587115      36.822152    
    395000   405.4458      -1525.7729      36.562602      36.638571      36.923683    
    396000   396.38228     -2082.7952      36.601215      36.537511      37.013306    
    397000   390.16811     -614.09523      36.60895       36.575431      36.911112    
    398000   404.2245      -1941.2361      36.645024      36.531651      36.939208    
    399000   401.05009     -2020.5068      36.634138      36.548809      36.977739    
    400000   395.37568     -3002.1232      36.620085      36.60018       36.959015    
    401000   398.29504     -1227.5839      36.58021       36.583854      36.959799    
    402000   398.20089     -993.98884      36.527969      36.553388      37.010396    
    403000   403.07474     -74.873399      36.575914      36.594388      36.920246    
    404000   397.37785     -980.90984      36.585999      36.623101      36.895914    
    405000   405.43994      912.94707      36.561321      36.542782      36.926929    
    406000   394.49019      1266.1037      36.568862      36.526677      36.917098    
    407000   392.68885      1746.1721      36.593559      36.497638      36.916153    
    408000   400.82609      363.1782       36.634422      36.582518      36.841942    
    409000   403.16856      505.2978       36.592897      36.579128      36.882492    
    410000   387.74863      1260.8552      36.581819      36.564297      36.87088     
    411000   405.22418      421.18837      36.704448      36.501845      36.838131    
    412000   392.65547      1932.6505      36.494493      36.608878      36.904838    
    413000   397.24778      288.51985      36.523645      36.605237      36.921075    
    414000   396.15892      722.64233      36.535661      36.583151      36.924703    
    415000   393.49746     -11.567454      36.579977      36.507685      37.007767    
    416000   399.10919     -749.34285      36.571054      36.596392      36.943148    
    417000   409.45902     -1544.3025      36.570782      36.599254      36.954772    
    418000   400.23263      923.58005      36.517796      36.635477      36.893188    
    419000   391.95485      1451.5622      36.588967      36.52632       36.901079    
    420000   394.64623      434.74617      36.497328      36.664308      36.893628    
    421000   395.90129     -1087.9366      36.575338      36.608646      36.912999    
    422000   389.90078     -1396.9293      36.586393      36.601067      36.960723    
    423000   402.59926     -1112.3792      36.649559      36.56451       36.909218    
    424000   398.64288     -304.17921      36.588932      36.629453      36.864607    
    425000   399.57422      1140.7838      36.531547      36.581719      36.901964    
    426000   404.98256      1932.8176      36.590109      36.537511      36.883395    
    427000   406.13464     -59.444449      36.620525      36.579286      36.861799    
    428000   395.41301     -85.511615      36.554736      36.495069      37.020175    
    429000   420.33172      163.72833      36.591154      36.573868      36.88974     
    430000   402.51586     -1221.6565      36.542471      36.56095       37.003821    
    431000   390.69316     -1703.7244      36.500785      36.604261      37.003349    
    432000   401.30639     -2097.8481      36.577017      36.589257      36.979232    
    433000   400.51802     -865.91978      36.636831      36.497742      36.972042    
    434000   404.52895      1835.0609      36.541101      36.563528      36.889699    
    435000   409.7672       1107.464       36.506669      36.479935      37.010977    
    436000   398.36347      802.47512      36.486071      36.57953       36.946652    
    437000   406.85821      589.27823      36.513659      36.505176      37.021377    
    438000   396.00516     -1054.7162      36.67061       36.430963      36.987597    
    439000   408.90235     -544.10928      36.514251      36.601527      36.962516    
    440000   383.59595     -97.64422       36.552258      36.549944      36.945019    
    441000   402.34939     -2837.395       36.499518      36.638098      37.037963    
    442000   395.49224     -898.1065       36.621225      36.527351      36.965764    
    443000   398.19268      87.267827      36.626412      36.462866      36.968696    
    444000   397.90226     -293.93225      36.549713      36.56507       36.960906    
    445000   403.05377     -721.04498      36.487192      36.604627      36.983722    
    446000   411.46147     -238.61859      36.625418      36.531404      36.900027    
    447000   389.28285      140.54009      36.481698      36.563041      37.006157    
    448000   395.19122      883.82691      36.582281      36.436225      36.997022    
    449000   397.90286      199.96978      36.5993        36.508211      36.94535     
    450000   402.21986     -367.794        36.626445      36.498695      36.959551    
    451000   399.21023      1003.8788      36.596985      36.558272      36.903859    
    452000   397.19242      1551.2428      36.683262      36.479175      36.863952    
    453000   414.34533     -231.40992      36.623091      36.483122      36.992       
    454000   402.35441     -667.88145      36.67698       36.501173      36.901249    
    455000   389.92606     -2232.8527      36.604474      36.514542      37.025455    
    456000   399.57061     -900.19655      36.533851      36.585298      36.975252    
    457000   405.88503      584.56823      36.601678      36.509982      36.916786    
    458000   407.61706      2582.6908      36.643299      36.46061       36.863673    
    459000   396.35573      967.89384      36.544274      36.549358      36.907608    
    460000   404.2465      -705.54682      36.582149      36.483175      37.033122    
    461000   401.05134     -2695.6885      36.609333      36.592969      36.947744    
    462000   392.32563     -1879.2315      36.620969      36.479438      37.036083    
    463000   402.00354     -519.36226      36.542434      36.501184      37.035628    
    464000   399.72151      159.79858      36.602833      36.5053        36.966244    
    465000   412.27859     -97.295412      36.572394      36.510759      36.973498    
    466000   396.83325      1037.5653      36.540021      36.551725      36.921574    
    467000   397.96516      180.18764      36.540739      36.512486      36.986381    
    468000   391.6417      -1132.0776      36.572822      36.53843       36.968836    
    469000   385.84999     -1992.0436      36.628705      36.525428      36.967955    
    470000   400.50176     -985.35066      36.632759      36.433403      37.023079    
    471000   400.19723      990.14675      36.496051      36.534023      36.988293    
    472000   400.77816      389.40574      36.50903       36.526236      37.003084    
    473000   398.35833      512.74565      36.554235      36.456235      36.989459    
    474000   395.7267       1086.1459      36.562227      36.410263      37.036649    
    475000   400.75046      729.37443      36.524832      36.45422       37.022763    
    476000   400.94398     -372.96225      36.540435      36.497557      37.030232    
    477000   402.75815      445.62843      36.600626      36.429414      37.012154    
    478000   400.25025      2320.8734      36.558515      36.40779       36.999303    
    479000   405.96932      2266.3329      36.514348      36.454267      36.974337    
    480000   399.06187      1431.1742      36.483478      36.487272      36.994237    
    481000   400.27162      1871.5093      36.447726      36.507953      37.036619    
    482000   401.12462      1059.3331      36.473764      36.50186       37.053027    
    483000   403.5208       278.82948      36.584765      36.453087      37.000334    
    484000   408.56959      2042.3638      36.44209       36.505593      37.015556    
    485000   406.23817      2126.9874      36.48285       36.464196      37.010808    
    486000   412.5294       1384.8762      36.478893      36.571837      36.97707     
    487000   407.18579     -364.5838       36.459596      36.468312      37.120526    
    488000   401.41369     -1303.6812      36.465519      36.583864      37.05787     
    489000   392.34219     -31.801018      36.505748      36.515709      37.006429    
    490000   393.64189      2070.5332      36.481594      36.493255      37.00299     
    491000   408.50492      121.46744      36.461928      36.510761      37.084081    
    492000   396.55575      3.5162631      36.428233      36.541744      37.072116    
    493000   394.61685     -459.63563      36.535378      36.506998      37.024047    
    494000   399.77568      1126.0864      36.454952      36.509252      37.04234     
    495000   404.12211      1209.8557      36.454586      36.543414      37.008834    
    496000   399.11611      698.20189      36.523348      36.570374      36.920896    
    497000   392.86689      848.33332      36.517082      36.456565      37.029882    
    498000   401.0608       192.45645      36.511525      36.500994      37.033019    
    499000   393.94502     -1739.0227      36.517525      36.558834      37.011458    
    500000   402.5977      -1323.033       36.489583      36.510956      37.098066    
Loop time of 179.883 on 40 procs for 500000 steps with 2592 atoms

Performance: 240.157 ns/day, 0.100 hours/ns, 2779.590 timesteps/s, 7.205 Matom-step/s
91.8% CPU use with 40 MPI tasks x no OpenMP threads

MPI task timing breakdown:
Section |  min time  |  avg time  |  max time  |%varavg| %total
---------------------------------------------------------------
Pair    | 44.964     | 51.752     | 57.269     |  43.5 | 28.77
Neigh   | 5.505      | 5.9814     | 6.4416     |  11.8 |  3.33
Comm    | 77.674     | 82.107     | 88.503     |  31.5 | 45.64
Output  | 0.013881   | 0.014529   | 0.019888   |   0.8 |  0.01
Modify  | 30.92      | 33.17      | 35.253     |  26.3 | 18.44
Other   |            | 6.858      |            |       |  3.81

Nlocal:           64.8 ave          75 max          56 min
Histogram: 2 3 5 8 7 4 3 2 5 1
Nghost:        1603.95 ave        1642 max        1555 min
Histogram: 5 2 1 1 3 8 7 5 6 2
Neighs:        7724.18 ave        9011 max        6434 min
Histogram: 3 2 4 6 7 5 2 5 4 2

Total # of neighbors = 308967
Ave neighs/atom = 119.20023
Neighbor list builds = 26565
Dangerous builds = 0
Generated 0 of 1 mixed pair_coeff terms from geometric mixing rule
Setting up Verlet run ...
  Unit style    : metal
  Current step  : 500000
  Time step     : 0.001
Per MPI rank memory allocation (min/avg/max) = 3.124 | 3.129 | 3.132 Mbytes
   Step          Temp          Press            Lx             Ly             Lz      
    500000   402.5977      -1323.033       36.489583      36.510956      37.098066    
    501000   407.29256     -1439.8477      36.489583      36.510956      37.098066    
    502000   399.464       -2362.9719      36.489583      36.510956      37.098066    
    503000   388.33668     -2107.7382      36.489583      36.510956      37.098066    
    504000   402.72306     -1690.6036      36.489583      36.510956      37.098066    
    505000   391.60656     -1601.1096      36.489583      36.510956      37.098066    
    506000   400.79278     -895.60644      36.489583      36.510956      37.098066    
    507000   396.36594     -1008.9175      36.489583      36.510956      37.098066    
    508000   400.49147     -1780.1757      36.489583      36.510956      37.098066    
    509000   402.0333      -1805.0212      36.489583      36.510956      37.098066    
    510000   398.50742     -1410.2169      36.489583      36.510956      37.098066    
    511000   401.37986     -818.70162      36.489583      36.510956      37.098066    
    512000   404.4558      -289.75369      36.489583      36.510956      37.098066    
    513000   402.58882     -2018.4614      36.489583      36.510956      37.098066    
    514000   408.37758     -1599.4338      36.489583      36.510956      37.098066    
    515000   409.36629     -1623.1946      36.489583      36.510956      37.098066    
    516000   403.88609     -1863.0439      36.489583      36.510956      37.098066    
    517000   411.16176     -1497.3685      36.489583      36.510956      37.098066    
    518000   397.3316      -1333.7458      36.489583      36.510956      37.098066    
    519000   398.89883     -1144.2264      36.489583      36.510956      37.098066    
    520000   394.34576     -1900.7387      36.489583      36.510956      37.098066    
    521000   400.79833     -1471.285       36.489583      36.510956      37.098066    
    522000   401.86919     -1422.0799      36.489583      36.510956      37.098066    
    523000   401.16351     -1479.5621      36.489583      36.510956      37.098066    
    524000   389.44991     -1054.5621      36.489583      36.510956      37.098066    
    525000   399.15994     -872.7538       36.489583      36.510956      37.098066    
    526000   404.4966      -1845.0828      36.489583      36.510956      37.098066    
    527000   392.95908     -1856.4666      36.489583      36.510956      37.098066    
    528000   399.86357     -1660.2476      36.489583      36.510956      37.098066    
    529000   396.27319     -1315.39        36.489583      36.510956      37.098066    
    530000   391.92679     -1815.7006      36.489583      36.510956      37.098066    
    531000   409.67502     -1691.8817      36.489583      36.510956      37.098066    
    532000   410.32851     -1827.2102      36.489583      36.510956      37.098066    
    533000   401.18505     -2305.4578      36.489583      36.510956      37.098066    
    534000   400.28411     -1538.6369      36.489583      36.510956      37.098066    
    535000   394.68948     -2127.4809      36.489583      36.510956      37.098066    
    536000   393.50064     -2303.0257      36.489583      36.510956      37.098066    
    537000   408.17979     -1898.6223      36.489583      36.510956      37.098066    
    538000   405.48443     -1974.553       36.489583      36.510956      37.098066    
    539000   391.9326      -1901.336       36.489583      36.510956      37.098066    
    540000   412.5895      -1671.0642      36.489583      36.510956      37.098066    
    541000   387.79396     -2026.2099      36.489583      36.510956      37.098066    
    542000   399.13244     -1849.7806      36.489583      36.510956      37.098066    
    543000   396.32462     -2474.6775      36.489583      36.510956      37.098066    
    544000   401.92999     -1733.9944      36.489583      36.510956      37.098066    
    545000   402.02492     -1915.0324      36.489583      36.510956      37.098066    
    546000   405.8667      -2232.5635      36.489583      36.510956      37.098066    
    547000   399.87103     -1698.6315      36.489583      36.510956      37.098066    
    548000   398.53204     -1539.595       36.489583      36.510956      37.098066    
    549000   409.32489     -1279.6328      36.489583      36.510956      37.098066    
    550000   394.78413     -2087.1903      36.489583      36.510956      37.098066    
    551000   399.61623     -1549.7083      36.489583      36.510956      37.098066    
    552000   399.91118     -2256.4104      36.489583      36.510956      37.098066    
    553000   397.12656     -1717.3342      36.489583      36.510956      37.098066    
    554000   402.0429      -1793.3433      36.489583      36.510956      37.098066    
    555000   397.9331      -1614.3283      36.489583      36.510956      37.098066    
    556000   402.9886      -885.45876      36.489583      36.510956      37.098066    
    557000   394.74354     -1612.418       36.489583      36.510956      37.098066    
    558000   401.67723     -1352.9681      36.489583      36.510956      37.098066    
    559000   394.18086     -2709.6673      36.489583      36.510956      37.098066    
    560000   415.53787     -2326.2367      36.489583      36.510956      37.098066    
    561000   408.68458     -1933.7062      36.489583      36.510956      37.098066    
    562000   398.21448     -1686.3027      36.489583      36.510956      37.098066    
    563000   392.09858     -1863.8475      36.489583      36.510956      37.098066    
    564000   416.56191     -961.21187      36.489583      36.510956      37.098066    
    565000   393.9648      -2282.6741      36.489583      36.510956      37.098066    
    566000   395.11608     -2070.3856      36.489583      36.510956      37.098066    
    567000   418.34966     -1758.0469      36.489583      36.510956      37.098066    
    568000   392.22831     -1966.7483      36.489583      36.510956      37.098066    
    569000   401.02171     -1952.3507      36.489583      36.510956      37.098066    
    570000   411.21321     -1738.4093      36.489583      36.510956      37.098066    
    571000   402.95546     -1294.474       36.489583      36.510956      37.098066    
    572000   393.86763     -1711.7987      36.489583      36.510956      37.098066    
    573000   396.01915     -1410.5919      36.489583      36.510956      37.098066    
    574000   396.69963     -1208.9653      36.489583      36.510956      37.098066    
    575000   397.17884     -1514.4139      36.489583      36.510956      37.098066    
    576000   400.98253     -1900.7204      36.489583      36.510956      37.098066    
    577000   406.74488     -1178.0561      36.489583      36.510956      37.098066    
    578000   403.70015     -1740.689       36.489583      36.510956      37.098066    
    579000   399.86466     -1627.0707      36.489583      36.510956      37.098066    
    580000   398.08142     -1968.603       36.489583      36.510956      37.098066    
    581000   402.5993      -1454.809       36.489583      36.510956      37.098066    
    582000   413.85361     -1616.7881      36.489583      36.510956      37.098066    
    583000   401.35667     -2011.2184      36.489583      36.510956      37.098066    
    584000   404.69427     -673.57263      36.489583      36.510956      37.098066    
    585000   395.0499      -2681.9856      36.489583      36.510956      37.098066    
    586000   386.34876     -2400.9012      36.489583      36.510956      37.098066    
    587000   405.97521     -1975.8626      36.489583      36.510956      37.098066    
    588000   391.64631     -2479.7509      36.489583      36.510956      37.098066    
    589000   399.21972     -1365.1274      36.489583      36.510956      37.098066    
    590000   394.97116     -1572.6716      36.489583      36.510956      37.098066    
    591000   396.22805     -2400.0071      36.489583      36.510956      37.098066    
    592000   404.30298     -1755.0912      36.489583      36.510956      37.098066    
    593000   396.86039     -1979.5669      36.489583      36.510956      37.098066    
    594000   400.1642      -1439.5531      36.489583      36.510956      37.098066    
    595000   397.07123     -2214.5337      36.489583      36.510956      37.098066    
    596000   402.9821      -2086.3255      36.489583      36.510956      37.098066    
    597000   392.88234     -1923.0661      36.489583      36.510956      37.098066    
    598000   398.84558     -1400.6886      36.489583      36.510956      37.098066    
    599000   385.31761     -1392.7476      36.489583      36.510956      37.098066    
    600000   403.77478     -1774.2395      36.489583      36.510956      37.098066    
    601000   393.76256     -2067.3008      36.489583      36.510956      37.098066    
    602000   400.59954     -1591.5859      36.489583      36.510956      37.098066    
    603000   394.10668     -2459.4819      36.489583      36.510956      37.098066    
    604000   403.38746     -1681.3708      36.489583      36.510956      37.098066    
    605000   403.51667     -1571.2468      36.489583      36.510956      37.098066    
    606000   404.21242     -2724.2951      36.489583      36.510956      37.098066    
    607000   401.48965     -1742.086       36.489583      36.510956      37.098066    
    608000   395.62641     -2271.8318      36.489583      36.510956      37.098066    
    609000   391.4622      -2307.6188      36.489583      36.510956      37.098066    
    610000   404.55593     -1253.08        36.489583      36.510956      37.098066    
    611000   390.09203     -1575.7413      36.489583      36.510956      37.098066    
    612000   401.28339     -1308.3261      36.489583      36.510956      37.098066    
    613000   398.50173     -1771.9121      36.489583      36.510956      37.098066    
    614000   402.28691     -1646.3231      36.489583      36.510956      37.098066    
    615000   391.74135     -1806.5611      36.489583      36.510956      37.098066    
    616000   402.12842     -1435.3447      36.489583      36.510956      37.098066    
    617000   396.66235     -1699.0245      36.489583      36.510956      37.098066    
    618000   399.54639     -1887.6808      36.489583      36.510956      37.098066    
    619000   397.99361     -1362.026       36.489583      36.510956      37.098066    
    620000   397.11364     -1658.4695      36.489583      36.510956      37.098066    
    621000   405.80698     -1346.0016      36.489583      36.510956      37.098066    
    622000   407.90328     -1656.6178      36.489583      36.510956      37.098066    
    623000   404.32684     -908.82069      36.489583      36.510956      37.098066    
    624000   398.43114     -1028.7577      36.489583      36.510956      37.098066    
    625000   391.5005      -1834.0542      36.489583      36.510956      37.098066    
    626000   410.85529     -1298.9428      36.489583      36.510956      37.098066    
    627000   404.84175     -716.96501      36.489583      36.510956      37.098066    
    628000   397.49624     -1341.3159      36.489583      36.510956      37.098066    
    629000   397.18592     -1312.0393      36.489583      36.510956      37.098066    
    630000   397.96262     -2088.6225      36.489583      36.510956      37.098066    
    631000   389.0381      -1418.6669      36.489583      36.510956      37.098066    
    632000   396.96675     -579.07145      36.489583      36.510956      37.098066    
    633000   396.78703     -1693.0683      36.489583      36.510956      37.098066    
    634000   402.77425     -1153.2059      36.489583      36.510956      37.098066    
    635000   400.3479      -1555.0863      36.489583      36.510956      37.098066    
    636000   396.11425     -1611.5094      36.489583      36.510956      37.098066    
    637000   390.73832     -1777.9186      36.489583      36.510956      37.098066    
    638000   396.32906     -1439.3037      36.489583      36.510956      37.098066    
    639000   392.95046     -1663.9786      36.489583      36.510956      37.098066    
    640000   397.94272     -1361.3544      36.489583      36.510956      37.098066    
    641000   406.10817     -1407.9106      36.489583      36.510956      37.098066    
    642000   400.41659     -1612.4312      36.489583      36.510956      37.098066    
    643000   403.50812     -593.24393      36.489583      36.510956      37.098066    
    644000   397.87189     -2085.266       36.489583      36.510956      37.098066    
    645000   392.87743     -2583.0262      36.489583      36.510956      37.098066    
    646000   411.12735     -1575.4966      36.489583      36.510956      37.098066    
    647000   402.1238      -1761.3307      36.489583      36.510956      37.098066    
    648000   410.99107     -1803.5054      36.489583      36.510956      37.098066    
    649000   398.69375     -1989.5057      36.489583      36.510956      37.098066    
    650000   388.0399      -1452.2723      36.489583      36.510956      37.098066    
    651000   407.18742     -1316.5808      36.489583      36.510956      37.098066    
    652000   387.46306     -2231.6476      36.489583      36.510956      37.098066    
    653000   400.19077     -1973.5778      36.489583      36.510956      37.098066    
    654000   395.87725     -1211.1315      36.489583      36.510956      37.098066    
    655000   396.58989     -1196.5343      36.489583      36.510956      37.098066    
    656000   406.40063     -1496.729       36.489583      36.510956      37.098066    
    657000   404.98653     -2041.3229      36.489583      36.510956      37.098066    
    658000   388.50816     -1582.2047      36.489583      36.510956      37.098066    
    659000   409.7799      -1013.8925      36.489583      36.510956      37.098066    
    660000   396.18193     -856.1147       36.489583      36.510956      37.098066    
    661000   395.64399     -1375.5771      36.489583      36.510956      37.098066    
    662000   392.28925     -1819.7455      36.489583      36.510956      37.098066    
    663000   399.82034     -1255.439       36.489583      36.510956      37.098066    
    664000   404.6979      -698.26758      36.489583      36.510956      37.098066    
    665000   391.97531     -1566.5153      36.489583      36.510956      37.098066    
    666000   394.53909     -1413.9518      36.489583      36.510956      37.098066    
    667000   402.58846     -1431.0521      36.489583      36.510956      37.098066    
    668000   399.22058     -1515.7897      36.489583      36.510956      37.098066    
    669000   407.97589     -1695.1339      36.489583      36.510956      37.098066    
    670000   407.0493      -1357.0304      36.489583      36.510956      37.098066    
    671000   384.53932     -1346.0966      36.489583      36.510956      37.098066    
    672000   403.14442     -1591.3384      36.489583      36.510956      37.098066    
    673000   397.35292     -1404.7341      36.489583      36.510956      37.098066    
    674000   398.37793     -1631.8358      36.489583      36.510956      37.098066    
    675000   393.45005     -1657.7418      36.489583      36.510956      37.098066    
    676000   406.36696     -1319.2641      36.489583      36.510956      37.098066    
    677000   399.46327     -993.12439      36.489583      36.510956      37.098066    
    678000   399.18379     -1332.6877      36.489583      36.510956      37.098066    
    679000   395.36849     -1051.8724      36.489583      36.510956      37.098066    
    680000   389.38211     -1785.0708      36.489583      36.510956      37.098066    
    681000   392.91211     -1811.0949      36.489583      36.510956      37.098066    
    682000   400.37933     -1545.2762      36.489583      36.510956      37.098066    
    683000   404.42952     -1361.3785      36.489583      36.510956      37.098066    
    684000   407.17052     -860.57811      36.489583      36.510956      37.098066    
    685000   390.12419     -1257.0549      36.489583      36.510956      37.098066    
    686000   399.31931     -564.17446      36.489583      36.510956      37.098066    
    687000   402.46033     -1108.8539      36.489583      36.510956      37.098066    
    688000   402.77042     -1137.4069      36.489583      36.510956      37.098066    
    689000   387.96323     -1333.1806      36.489583      36.510956      37.098066    
    690000   396.63324     -1592.7723      36.489583      36.510956      37.098066    
    691000   395.68691     -1529.431       36.489583      36.510956      37.098066    
    692000   405.47305     -1501.842       36.489583      36.510956      37.098066    
    693000   397.35271     -1573.0693      36.489583      36.510956      37.098066    
    694000   396.55527     -1815.9388      36.489583      36.510956      37.098066    
    695000   397.76672     -1169.7179      36.489583      36.510956      37.098066    
    696000   412.05715     -1385.9924      36.489583      36.510956      37.098066    
    697000   401.73773     -1572.6119      36.489583      36.510956      37.098066    
    698000   396.58026     -1300.9338      36.489583      36.510956      37.098066    
    699000   403.17838     -1444.8798      36.489583      36.510956      37.098066    
    700000   395.69173     -924.43404      36.489583      36.510956      37.098066    
    701000   403.60103     -917.89417      36.489583      36.510956      37.098066    
    702000   397.73702     -1387.9495      36.489583      36.510956      37.098066    
    703000   397.46216     -1069.6441      36.489583      36.510956      37.098066    
    704000   399.76203     -673.15241      36.489583      36.510956      37.098066    
    705000   406.45364     -1222.1272      36.489583      36.510956      37.098066    
    706000   393.08495     -1683.4949      36.489583      36.510956      37.098066    
    707000   410.56797     -357.47939      36.489583      36.510956      37.098066    
    708000   392.13533     -1382.7677      36.489583      36.510956      37.098066    
    709000   390.85877     -1464.0332      36.489583      36.510956      37.098066    
    710000   388.30297     -1169.5008      36.489583      36.510956      37.098066    
    711000   397.32131     -1717.5872      36.489583      36.510956      37.098066    
    712000   404.24381     -1537.985       36.489583      36.510956      37.098066    
    713000   404.30188     -1280.6303      36.489583      36.510956      37.098066    
    714000   394.38789     -853.72643      36.489583      36.510956      37.098066    
    715000   395.66        -1583.1569      36.489583      36.510956      37.098066    
    716000   402.75934     -1106.8154      36.489583      36.510956      37.098066    
    717000   406.18444     -544.57744      36.489583      36.510956      37.098066    
    718000   404.30349     -1142.0057      36.489583      36.510956      37.098066    
    719000   398.28012     -1255.6283      36.489583      36.510956      37.098066    
    720000   412.23884     -699.44039      36.489583      36.510956      37.098066    
    721000   390.3756      -1348.4152      36.489583      36.510956      37.098066    
    722000   403.18025     -1258.2478      36.489583      36.510956      37.098066    
    723000   403.80961     -246.56896      36.489583      36.510956      37.098066    
    724000   400.13847     -1449.8949      36.489583      36.510956      37.098066    
    725000   396.29924     -925.80981      36.489583      36.510956      37.098066    
    726000   403.90042     -977.1339       36.489583      36.510956      37.098066    
    727000   401.92241     -1427.3253      36.489583      36.510956      37.098066    
    728000   395.82379     -1533.4066      36.489583      36.510956      37.098066    
    729000   403.70613     -1195.8489      36.489583      36.510956      37.098066    
    730000   395.7536      -1365.0503      36.489583      36.510956      37.098066    
    731000   410.86528     -1201.5045      36.489583      36.510956      37.098066    
    732000   393.55407     -1009.8459      36.489583      36.510956      37.098066    
    733000   407.62921     -939.09152      36.489583      36.510956      37.098066    
    734000   398.2945      -1135.2696      36.489583      36.510956      37.098066    
    735000   405.73561     -949.78694      36.489583      36.510956      37.098066    
    736000   401.63205     -1217.8255      36.489583      36.510956      37.098066    
    737000   403.9801      -799.69434      36.489583      36.510956      37.098066    
    738000   399.44674     -1033.3138      36.489583      36.510956      37.098066    
    739000   395.65292     -602.95365      36.489583      36.510956      37.098066    
    740000   392.0911      -968.97207      36.489583      36.510956      37.098066    
    741000   408.08618     -1121.9992      36.489583      36.510956      37.098066    
    742000   398.64216     -1176.4658      36.489583      36.510956      37.098066    
    743000   400.05666     -1872.0599      36.489583      36.510956      37.098066    
    744000   391.83769     -1698.5038      36.489583      36.510956      37.098066    
    745000   392.13596     -1001.2614      36.489583      36.510956      37.098066    
    746000   398.52526     -1274.1172      36.489583      36.510956      37.098066    
    747000   397.54132     -1166.2354      36.489583      36.510956      37.098066    
    748000   389.72466     -993.9325       36.489583      36.510956      37.098066    
    749000   399.85752     -1652.8872      36.489583      36.510956      37.098066    
    750000   394.34754     -1470.3196      36.489583      36.510956      37.098066    
    751000   409.49688     -1506.3352      36.489583      36.510956      37.098066    
    752000   392.52553     -331.53611      36.489583      36.510956      37.098066    
    753000   407.51071     -1139.6154      36.489583      36.510956      37.098066    
    754000   399.55023     -1279.0679      36.489583      36.510956      37.098066    
    755000   411.03508     -821.52342      36.489583      36.510956      37.098066    
    756000   395.63027     -1047.3453      36.489583      36.510956      37.098066    
    757000   405.6342      -1386.8428      36.489583      36.510956      37.098066    
    758000   394.62372     -1096.6574      36.489583      36.510956      37.098066    
    759000   407.81191     -1817.5527      36.489583      36.510956      37.098066    
    760000   410.18663     -946.59522      36.489583      36.510956      37.098066    
    761000   397.87578     -1666.6177      36.489583      36.510956      37.098066    
    762000   407.8514      -872.23882      36.489583      36.510956      37.098066    
    763000   402.41246     -1207.5389      36.489583      36.510956      37.098066    
    764000   399.72176     -884.18118      36.489583      36.510956      37.098066    
    765000   399.82373     -1982.2465      36.489583      36.510956      37.098066    
    766000   409.19552     -1633.157       36.489583      36.510956      37.098066    
    767000   399.35753     -959.22726      36.489583      36.510956      37.098066    
    768000   397.8769      -1236.9519      36.489583      36.510956      37.098066    
    769000   402.53865     -566.74409      36.489583      36.510956      37.098066    
    770000   407.74487     -580.68184      36.489583      36.510956      37.098066    
    771000   394.18274     -1470.0899      36.489583      36.510956      37.098066    
    772000   401.62459     -1446.6804      36.489583      36.510956      37.098066    
    773000   404.42864     -1332.7335      36.489583      36.510956      37.098066    
    774000   392.94956     -1189.0439      36.489583      36.510956      37.098066    
    775000   405.53975     -1188.1745      36.489583      36.510956      37.098066    
    776000   402.57021     -1330.7285      36.489583      36.510956      37.098066    
    777000   394.86397     -983.85569      36.489583      36.510956      37.098066    
    778000   401.91034     -858.00902      36.489583      36.510956      37.098066    
    779000   396.44018     -1000.8812      36.489583      36.510956      37.098066    
    780000   412.33903     -589.1482       36.489583      36.510956      37.098066    
    781000   401.99493     -1203.3806      36.489583      36.510956      37.098066    
    782000   400.60926     -864.87855      36.489583      36.510956      37.098066    
    783000   400.08219     -1732.9413      36.489583      36.510956      37.098066    
    784000   400.5976      -1407.5035      36.489583      36.510956      37.098066    
    785000   395.68475     -521.94989      36.489583      36.510956      37.098066    
    786000   400.45912     -1235.9385      36.489583      36.510956      37.098066    
    787000   402.68836     -1177.5224      36.489583      36.510956      37.098066    
    788000   401.47448     -1375.3468      36.489583      36.510956      37.098066    
    789000   405.75883     -686.79759      36.489583      36.510956      37.098066    
    790000   403.68199     -545.48568      36.489583      36.510956      37.098066    
    791000   395.17155     -676.37051      36.489583      36.510956      37.098066    
    792000   392.00831     -206.16531      36.489583      36.510956      37.098066    
    793000   392.25256     -1041.9009      36.489583      36.510956      37.098066    
    794000   408.29605     -977.19739      36.489583      36.510956      37.098066    
    795000   407.61176     -1052.425       36.489583      36.510956      37.098066    
    796000   407.33198     -1479.1804      36.489583      36.510956      37.098066    
    797000   406.87003     -1255.6204      36.489583      36.510956      37.098066    
    798000   402.01417     -1679.5845      36.489583      36.510956      37.098066    
    799000   400.02539     -668.91428      36.489583      36.510956      37.098066    
    800000   391.80132     -1136.57        36.489583      36.510956      37.098066    
    801000   405.31677     -1029.256       36.489583      36.510956      37.098066    
    802000   419.67141     -1224.2211      36.489583      36.510956      37.098066    
    803000   402.34053     -1385.0268      36.489583      36.510956      37.098066    
    804000   391.29946     -923.72029      36.489583      36.510956      37.098066    
    805000   396.42011     -1420.3445      36.489583      36.510956      37.098066    
    806000   399.82586     -901.36187      36.489583      36.510956      37.098066    
    807000   405.83131     -1507.7275      36.489583      36.510956      37.098066    
    808000   405.95892     -1444.3056      36.489583      36.510956      37.098066    
    809000   404.0388      -1303.7198      36.489583      36.510956      37.098066    
    810000   405.90273     -1563.0118      36.489583      36.510956      37.098066    
    811000   395.83301     -1667.1032      36.489583      36.510956      37.098066    
    812000   402.33957     -1239.1977      36.489583      36.510956      37.098066    
    813000   386.98903     -1659.9775      36.489583      36.510956      37.098066    
    814000   391.04038     -1328.2532      36.489583      36.510956      37.098066    
    815000   398.74032     -1443.4146      36.489583      36.510956      37.098066    
    816000   403.45861     -1227.4914      36.489583      36.510956      37.098066    
    817000   408.44942     -1321.7717      36.489583      36.510956      37.098066    
    818000   390.29693     -987.22633      36.489583      36.510956      37.098066    
    819000   402.27555     -529.14274      36.489583      36.510956      37.098066    
    820000   392.60242     -1166.0505      36.489583      36.510956      37.098066    
    821000   408.00292     -705.67587      36.489583      36.510956      37.098066    
    822000   398.66853     -550.57718      36.489583      36.510956      37.098066    
    823000   406.06941     -743.99085      36.489583      36.510956      37.098066    
    824000   397.36348     -860.51705      36.489583      36.510956      37.098066    
    825000   398.69648     -1241.2565      36.489583      36.510956      37.098066    
    826000   403.88203     -1390.1584      36.489583      36.510956      37.098066    
    827000   404.51487     -428.8219       36.489583      36.510956      37.098066    
    828000   410.69734     -1113.1931      36.489583      36.510956      37.098066    
    829000   402.53396     -565.40886      36.489583      36.510956      37.098066    
    830000   406.08267     -479.84614      36.489583      36.510956      37.098066    
    831000   398.80018     -409.38448      36.489583      36.510956      37.098066    
    832000   414.79916     -254.12474      36.489583      36.510956      37.098066    
    833000   390.03512     -1167.8728      36.489583      36.510956      37.098066    
    834000   404.11421     -984.40748      36.489583      36.510956      37.098066    
    835000   394.69493     -1019.2041      36.489583      36.510956      37.098066    
    836000   411.92791     -1472.3516      36.489583      36.510956      37.098066    
    837000   404.69697     -1539.1827      36.489583      36.510956      37.098066    
    838000   402.89954     -1139.8977      36.489583      36.510956      37.098066    
    839000   396.59832     -1135.3357      36.489583      36.510956      37.098066    
    840000   393.5929      -1002.3343      36.489583      36.510956      37.098066    
    841000   395.2911      -925.7091       36.489583      36.510956      37.098066    
    842000   396.24771     -1130.6155      36.489583      36.510956      37.098066    
    843000   396.10146     -877.36585      36.489583      36.510956      37.098066    
    844000   391.15622     -785.96157      36.489583      36.510956      37.098066    
    845000   408.15282     -638.32092      36.489583      36.510956      37.098066    
    846000   396.56398     -900.20617      36.489583      36.510956      37.098066    
    847000   411.67473     -726.18287      36.489583      36.510956      37.098066    
    848000   390.66305     -1332.2615      36.489583      36.510956      37.098066    
    849000   404.88316     -686.40249      36.489583      36.510956      37.098066    
    850000   405.57818     -1059.4547      36.489583      36.510956      37.098066    
    851000   395.47986     -1019.0757      36.489583      36.510956      37.098066    
    852000   407.3213      -1253.8699      36.489583      36.510956      37.098066    
    853000   398.26887     -1954.6551      36.489583      36.510956      37.098066    
    854000   399.6315      -738.408        36.489583      36.510956      37.098066    
    855000   405.35536     -933.68621      36.489583      36.510956      37.098066    
    856000   389.29275     -924.97464      36.489583      36.510956      37.098066    
    857000   399.86025     -919.52477      36.489583      36.510956      37.098066    
    858000   400.38067     -1389.5652      36.489583      36.510956      37.098066    
    859000   411.31845     -697.5042       36.489583      36.510956      37.098066    
    860000   392.65214     -1582.481       36.489583      36.510956      37.098066    
    861000   398.92941     -1121.6216      36.489583      36.510956      37.098066    
    862000   404.69833     -1731.0364      36.489583      36.510956      37.098066    
    863000   410.98115     -1437.4995      36.489583      36.510956      37.098066    
    864000   401.40636     -1138.172       36.489583      36.510956      37.098066    
    865000   395.66236     -1480.2693      36.489583      36.510956      37.098066    
    866000   389.67709     -748.21642      36.489583      36.510956      37.098066    
    867000   413.83985     -1135.4859      36.489583      36.510956      37.098066    
    868000   393.05692     -1214.6489      36.489583      36.510956      37.098066    
    869000   393.51003     -1212.8078      36.489583      36.510956      37.098066    
    870000   401.74561     -771.53914      36.489583      36.510956      37.098066    
    871000   407.17488     -1513.7079      36.489583      36.510956      37.098066    
    872000   398.58869     -860.71851      36.489583      36.510956      37.098066    
    873000   409.26627     -1488.0732      36.489583      36.510956      37.098066    
    874000   399.48212     -761.27282      36.489583      36.510956      37.098066    
    875000   407.53509     -698.02951      36.489583      36.510956      37.098066    
    876000   405.85363     -691.76725      36.489583      36.510956      37.098066    
    877000   407.99557     -1104.5501      36.489583      36.510956      37.098066    
    878000   403.94671     -1682.5413      36.489583      36.510956      37.098066    
    879000   406.55911     -729.77217      36.489583      36.510956      37.098066    
    880000   399.20291     -1020.8461      36.489583      36.510956      37.098066    
    881000   396.06814     -630.9371       36.489583      36.510956      37.098066    
    882000   393.90751     -1252.1098      36.489583      36.510956      37.098066    
    883000   407.08788     -1088.8524      36.489583      36.510956      37.098066    
    884000   399.72447     -1169.6151      36.489583      36.510956      37.098066    
    885000   403.08952     -1217.653       36.489583      36.510956      37.098066    
    886000   403.91206     -920.80325      36.489583      36.510956      37.098066    
    887000   396.97767     -2153.0516      36.489583      36.510956      37.098066    
    888000   394.76949     -1160.3967      36.489583      36.510956      37.098066    
    889000   403.96279     -869.82997      36.489583      36.510956      37.098066    
    890000   402.00059     -1483.1402      36.489583      36.510956      37.098066    
    891000   397.6154      -787.05215      36.489583      36.510956      37.098066    
    892000   405.44083     -518.28033      36.489583      36.510956      37.098066    
    893000   405.65514     -1106.0755      36.489583      36.510956      37.098066    
    894000   394.72797     -595.41268      36.489583      36.510956      37.098066    
    895000   403.36821     -1613.2399      36.489583      36.510956      37.098066    
    896000   397.13991     -1220.8418      36.489583      36.510956      37.098066    
    897000   398.64635     -718.37533      36.489583      36.510956      37.098066    
    898000   408.47978     -1278.8052      36.489583      36.510956      37.098066    
    899000   400.98063     -1202.2859      36.489583      36.510956      37.098066    
    900000   396.22981     -1125.7338      36.489583      36.510956      37.098066    
    901000   395.53526     -1223.5126      36.489583      36.510956      37.098066    
    902000   395.42528     -1333.7067      36.489583      36.510956      37.098066    
    903000   399.15975     -1996.583       36.489583      36.510956      37.098066    
    904000   394.96879     -1126.3443      36.489583      36.510956      37.098066    
    905000   403.00985     -1511.2399      36.489583      36.510956      37.098066    
    906000   406.71545     -2248.4097      36.489583      36.510956      37.098066    
    907000   401.09679     -1614.7991      36.489583      36.510956      37.098066    
    908000   401.44024     -1572.2734      36.489583      36.510956      37.098066    
    909000   392.17246     -1785.1189      36.489583      36.510956      37.098066    
    910000   400.60256     -1529.5678      36.489583      36.510956      37.098066    
    911000   394.37181     -1115.6677      36.489583      36.510956      37.098066    
    912000   404.80921     -1254.1975      36.489583      36.510956      37.098066    
    913000   399.63454     -983.6098       36.489583      36.510956      37.098066    
    914000   394.3641      -1553.6711      36.489583      36.510956      37.098066    
    915000   397.83449     -1617.5548      36.489583      36.510956      37.098066    
    916000   418.2276      -708.43281      36.489583      36.510956      37.098066    
    917000   402.75973     -1917.3013      36.489583      36.510956      37.098066    
    918000   409.6588      -1709.695       36.489583      36.510956      37.098066    
    919000   400.18332     -937.10685      36.489583      36.510956      37.098066    
    920000   397.35127     -1774.8825      36.489583      36.510956      37.098066    
    921000   402.98737     -911.81861      36.489583      36.510956      37.098066    
    922000   399.24529     -1754.4687      36.489583      36.510956      37.098066    
    923000   401.45636     -1632.0158      36.489583      36.510956      37.098066    
    924000   395.9816      -1387.9177      36.489583      36.510956      37.098066    
    925000   412.16777     -1491.8985      36.489583      36.510956      37.098066    
    926000   399.09188     -734.96019      36.489583      36.510956      37.098066    
    927000   388.76136     -1742.6164      36.489583      36.510956      37.098066    
    928000   403.52277     -1819.5602      36.489583      36.510956      37.098066    
    929000   387.76533     -1700.709       36.489583      36.510956      37.098066    
    930000   388.16776     -1387.0308      36.489583      36.510956      37.098066    
    931000   404.81877     -1569.935       36.489583      36.510956      37.098066    
    932000   411.89268     -1485.5837      36.489583      36.510956      37.098066    
    933000   402.41149     -1212.4964      36.489583      36.510956      37.098066    
    934000   403.01675     -1473.2995      36.489583      36.510956      37.098066    
    935000   411.54214     -961.71039      36.489583      36.510956      37.098066    
    936000   412.61295     -1426.7172      36.489583      36.510956      37.098066    
    937000   403.93396     -1799.0566      36.489583      36.510956      37.098066    
    938000   398.40639     -1243.3399      36.489583      36.510956      37.098066    
    939000   410.14506     -1669.9073      36.489583      36.510956      37.098066    
    940000   396.10193     -1608.2778      36.489583      36.510956      37.098066    
    941000   402.49901     -1145.4994      36.489583      36.510956      37.098066    
    942000   398.73007     -1477.0565      36.489583      36.510956      37.098066    
    943000   403.47145     -1079.5359      36.489583      36.510956      37.098066    
    944000   396.54816     -1644.0384      36.489583      36.510956      37.098066    
    945000   399.93505     -1683.2712      36.489583      36.510956      37.098066    
    946000   393.98664     -1506.9872      36.489583      36.510956      37.098066    
    947000   401.3778      -1897.7108      36.489583      36.510956      37.098066    
    948000   399.77145     -1431.4235      36.489583      36.510956      37.098066    
    949000   399.59002     -1539.342       36.489583      36.510956      37.098066    
    950000   400.47379     -1760.6044      36.489583      36.510956      37.098066    
    951000   397.64962     -1449.6743      36.489583      36.510956      37.098066    
    952000   405.18459     -1721.447       36.489583      36.510956      37.098066    
    953000   393.30584     -1393.2655      36.489583      36.510956      37.098066    
    954000   402.52687     -1502.9035      36.489583      36.510956      37.098066    
    955000   406.93079     -1580.8882      36.489583      36.510956      37.098066    
    956000   395.04955     -1153.6715      36.489583      36.510956      37.098066    
    957000   400.9138      -1045.5182      36.489583      36.510956      37.098066    
    958000   405.16145     -1680.7793      36.489583      36.510956      37.098066    
    959000   408.92381     -1679.6835      36.489583      36.510956      37.098066    
    960000   384.13586     -1829.8944      36.489583      36.510956      37.098066    
    961000   407.21473     -967.94011      36.489583      36.510956      37.098066    
    962000   404.48706     -1904.76        36.489583      36.510956      37.098066    
    963000   398.44051     -2062.5564      36.489583      36.510956      37.098066    
    964000   403.15425     -1247.353       36.489583      36.510956      37.098066    
    965000   402.27874     -1806.3119      36.489583      36.510956      37.098066    
    966000   396.27996     -1671.6112      36.489583      36.510956      37.098066    
    967000   398.74595     -1950.635       36.489583      36.510956      37.098066    
    968000   407.09851     -1097.6256      36.489583      36.510956      37.098066    
    969000   401.54296     -1331.1409      36.489583      36.510956      37.098066    
    970000   400.97177     -1574.1667      36.489583      36.510956      37.098066    
    971000   390.37669     -1647.0662      36.489583      36.510956      37.098066    
    972000   387.61718     -1556.3886      36.489583      36.510956      37.098066    
    973000   396.31951     -1370.0055      36.489583      36.510956      37.098066    
    974000   398.57066     -1494.1712      36.489583      36.510956      37.098066    
    975000   405.71132     -1079.3306      36.489583      36.510956      37.098066    
    976000   403.02115     -2000.8572      36.489583      36.510956      37.098066    
    977000   393.86808     -1350.9576      36.489583      36.510956      37.098066    
    978000   385.83732     -1442.8737      36.489583      36.510956      37.098066    
    979000   403.09336     -1786.2154      36.489583      36.510956      37.098066    
    980000   391.94159     -1728.3709      36.489583      36.510956      37.098066    
    981000   397.47482     -1611.4422      36.489583      36.510956      37.098066    
    982000   388.00485     -1747.2131      36.489583      36.510956      37.098066    
    983000   398.13645     -1446.0054      36.489583      36.510956      37.098066    
    984000   399.06322     -1764.7904      36.489583      36.510956      37.098066    
    985000   407.6529      -1131.1365      36.489583      36.510956      37.098066    
    986000   397.59947     -1966.7443      36.489583      36.510956      37.098066    
    987000   397.10173     -1812.902       36.489583      36.510956      37.098066    
    988000   397.05458     -1123.4674      36.489583      36.510956      37.098066    
    989000   394.88346     -1802.4434      36.489583      36.510956      37.098066    
    990000   410.007       -1276.7158      36.489583      36.510956      37.098066    
    991000   393.96088     -1755.499       36.489583      36.510956      37.098066    
    992000   392.94501     -2202.4925      36.489583      36.510956      37.098066    
    993000   392.83483     -2148.2004      36.489583      36.510956      37.098066    
    994000   395.33113     -1694.6809      36.489583      36.510956      37.098066    
    995000   408.24915     -1824.7052      36.489583      36.510956      37.098066    
    996000   391.95875     -1259.4506      36.489583      36.510956      37.098066    
    997000   390.46339     -1959.9561      36.489583      36.510956      37.098066    
    998000   401.93646     -1824.9189      36.489583      36.510956      37.098066    
    999000   392.1051      -2220.9934      36.489583      36.510956      37.098066    
   1000000   394.74792     -1263.9361      36.489583      36.510956      37.098066    
Loop time of 158.541 on 40 procs for 500000 steps with 2592 atoms

Performance: 272.485 ns/day, 0.088 hours/ns, 3153.757 timesteps/s, 8.175 Matom-step/s
91.2% CPU use with 40 MPI tasks x no OpenMP threads

MPI task timing breakdown:
Section |  min time  |  avg time  |  max time  |%varavg| %total
---------------------------------------------------------------
Pair    | 42.865     | 48.601     | 54.342     |  51.6 | 30.66
Neigh   | 5.0689     | 5.5296     | 6.1502     |  14.3 |  3.49
Comm    | 74.839     | 80.669     | 86.153     |  41.0 | 50.88
Output  | 0.013638   | 0.014297   | 0.01916    |   0.7 |  0.01
Modify  | 14.913     | 17.038     | 19.062     |  36.7 | 10.75
Other   |            | 6.689      |            |       |  4.22

Nlocal:           64.8 ave          79 max          52 min
Histogram: 1 2 6 5 9 5 6 5 0 1
Nghost:         1598.8 ave        1642 max        1545 min
Histogram: 7 1 0 0 2 8 10 4 4 4
Neighs:         7723.7 ave        9730 max        5783 min
Histogram: 1 1 4 9 4 8 7 4 1 1

Total # of neighbors = 308948
Ave neighs/atom = 119.1929
Neighbor list builds = 24563
Dangerous builds = 0
Generated 0 of 1 mixed pair_coeff terms from geometric mixing rule
Setting up Verlet run ...
  Unit style    : metal
  Current step  : 1000000
  Time step     : 0.001
Per MPI rank memory allocation (min/avg/max) = 3.124 | 3.129 | 3.132 Mbytes
   Step          Temp          Press            Lx             Ly             Lz      
   1000000   394.74792     -1263.9361      36.489583      36.510956      37.098066    
   1001000   400.61361     -1566.4963      36.489583      36.510956      37.098066    
   1002000   402.91801     -1663.0144      36.489583      36.510956      37.098066    
   1003000   400.36878     -1434.2242      36.489583      36.510956      37.098066    
   1004000   404.80785     -1715.5863      36.489583      36.510956      37.098066    
   1005000   400.54362     -1393.5627      36.489583      36.510956      37.098066    
   1006000   402.4618      -1596.9767      36.489583      36.510956      37.098066    
   1007000   394.22103     -994.5866       36.489583      36.510956      37.098066    
   1008000   398.95192     -1237.5752      36.489583      36.510956      37.098066    
   1009000   394.692       -1191.6309      36.489583      36.510956      37.098066    
   1010000   395.45023     -1118.0008      36.489583      36.510956      37.098066    
   1011000   396.31944     -1268.2146      36.489583      36.510956      37.098066    
   1012000   405.09718     -1624.7628      36.489583      36.510956      37.098066    
   1013000   398.25402     -1287.6548      36.489583      36.510956      37.098066    
   1014000   403.02102     -1650.4757      36.489583      36.510956      37.098066    
   1015000   397.14779     -1272.6635      36.489583      36.510956      37.098066    
   1016000   399.69188     -1491.6141      36.489583      36.510956      37.098066    
   1017000   409.28575     -1894.1385      36.489583      36.510956      37.098066    
   1018000   400.40776     -1539.7847      36.489583      36.510956      37.098066    
   1019000   396.36032     -1246.7959      36.489583      36.510956      37.098066    
   1020000   404.7486      -1629.2927      36.489583      36.510956      37.098066    
   1021000   405.07503     -1665.6944      36.489583      36.510956      37.098066    
   1022000   402.96897     -1697.9589      36.489583      36.510956      37.098066    
   1023000   406.15688     -1732.549       36.489583      36.510956      37.098066    
   1024000   404.40438     -1589.9973      36.489583      36.510956      37.098066    
   1025000   407.95977     -1889.2413      36.489583      36.510956      37.098066    
   1026000   398.19068     -1328.8592      36.489583      36.510956      37.098066    
   1027000   398.49666     -1340.5248      36.489583      36.510956      37.098066    
   1028000   404.85475     -1731.503       36.489583      36.510956      37.098066    
   1029000   409.41392     -1868.7928      36.489583      36.510956      37.098066    
   1030000   398.99266     -1465.6966      36.489583      36.510956      37.098066    
   1031000   393.57768     -1152.3646      36.489583      36.510956      37.098066    
   1032000   398.28471     -1358.7767      36.489583      36.510956      37.098066    
   1033000   412.45216     -2140.3545      36.489583      36.510956      37.098066    
   1034000   406.00237     -1687.9164      36.489583      36.510956      37.098066    
   1035000   404.08822     -1727.1218      36.489583      36.510956      37.098066    
   1036000   402.90695     -1652.1784      36.489583      36.510956      37.098066    
   1037000   400.07272     -1529.6887      36.489583      36.510956      37.098066    
   1038000   397.55031     -1339.7049      36.489583      36.510956      37.098066    
   1039000   405.65868     -1689.7993      36.489583      36.510956      37.098066    
   1040000   406.86392     -1815.3941      36.489583      36.510956      37.098066    
   1041000   410.71916     -2029.4164      36.489583      36.510956      37.098066    
   1042000   402.26563     -1640.5257      36.489583      36.510956      37.098066    
   1043000   397.99888     -1324.1269      36.489583      36.510956      37.098066    
   1044000   394.70662     -1087.4202      36.489583      36.510956      37.098066    
   1045000   403.57423     -1535.6645      36.489583      36.510956      37.098066    
   1046000   398.04242     -1185.5398      36.489583      36.510956      37.098066    
   1047000   401.38556     -1355.833       36.489583      36.510956      37.098066    
   1048000   405.58694     -1685.5393      36.489583      36.510956      37.098066    
   1049000   399.37112     -1359.7918      36.489583      36.510956      37.098066    
   1050000   410.54121     -1821.977       36.489583      36.510956      37.098066    
   1051000   400.52679     -1372.5765      36.489583      36.510956      37.098066    
   1052000   399.30909     -1373.3308      36.489583      36.510956      37.098066    
   1053000   399.94364     -1430.7443      36.489583      36.510956      37.098066    
   1054000   400.16719     -1473.6737      36.489583      36.510956      37.098066    
   1055000   405.57678     -1776.446       36.489583      36.510956      37.098066    
   1056000   402.59371     -1623.0778      36.489583      36.510956      37.098066    
   1057000   402.4139      -1501.7867      36.489583      36.510956      37.098066    
   1058000   405.57847     -1681.4779      36.489583      36.510956      37.098066    
   1059000   405.08674     -1567.965       36.489583      36.510956      37.098066    
   1060000   410.43084     -2059.583       36.489583      36.510956      37.098066    
   1061000   398.57448     -1290.7916      36.489583      36.510956      37.098066    
   1062000   409.15964     -1832.8838      36.489583      36.510956      37.098066    
   1063000   398.72962     -1307.9126      36.489583      36.510956      37.098066    
   1064000   402.58783     -1530.6356      36.489583      36.510956      37.098066    
   1065000   402.85736     -1613.148       36.489583      36.510956      37.098066    
   1066000   397.0051      -1280.1168      36.489583      36.510956      37.098066    
   1067000   399.25298     -1450.184       36.489583      36.510956      37.098066    
   1068000   405.59541     -1633.9269      36.489583      36.510956      37.098066    
   1069000   395.12554     -1064.96        36.489583      36.510956      37.098066    
   1070000   397.65455     -1263.8779      36.489583      36.510956      37.098066    
   1071000   398.36923     -1220.1233      36.489583      36.510956      37.098066    
   1072000   398.27025     -1324.4999      36.489583      36.510956      37.098066    
   1073000   409.63749     -1833.356       36.489583      36.510956      37.098066    
   1074000   399.60715     -1326.8058      36.489583      36.510956      37.098066    
   1075000   396.33758     -1124.6682      36.489583      36.510956      37.098066    
   1076000   394.72054     -968.3669       36.489583      36.510956      37.098066    
   1077000   397.34514     -1269.351       36.489583      36.510956      37.098066    
   1078000   402.0284      -1527.7491      36.489583      36.510956      37.098066    
   1079000   398.43327     -1281.2779      36.489583      36.510956      37.098066    
   1080000   397.24009     -1218.4205      36.489583      36.510956      37.098066    
   1081000   406.05301     -1702.8482      36.489583      36.510956      37.098066    
   1082000   394.31759     -1116.283       36.489583      36.510956      37.098066    
   1083000   403.30113     -1495.9643      36.489583      36.510956      37.098066    
   1084000   394.91757     -1039.3124      36.489583      36.510956      37.098066    
   1085000   404.82897     -1490.2306      36.489583      36.510956      37.098066    
   1086000   401.78102     -1555.3807      36.489583      36.510956      37.098066    
   1087000   409.45639     -1887.4792      36.489583      36.510956      37.098066    
   1088000   400.44645     -1400.532       36.489583      36.510956      37.098066    
   1089000   397.14786     -1308.2925      36.489583      36.510956      37.098066    
   1090000   407.43533     -1921.1231      36.489583      36.510956      37.098066    
   1091000   404.2136      -1764.5052      36.489583      36.510956      37.098066    
   1092000   398.25409     -1430.6362      36.489583      36.510956      37.098066    
   1093000   393.93175     -1054.0792      36.489583      36.510956      37.098066    
   1094000   404.52672     -1658.3086      36.489583      36.510956      37.098066    
   1095000   400.89705     -1480.2369      36.489583      36.510956      37.098066    
   1096000   401.01798     -1510.306       36.489583      36.510956      37.098066    
   1097000   404.65336     -1731.8058      36.489583      36.510956      37.098066    
   1098000   402.47672     -1562.2662      36.489583      36.510956      37.098066    
   1099000   399.40823     -1338.214       36.489583      36.510956      37.098066    
   1100000   403.74952     -1470.3654      36.489583      36.510956      37.098066    
   1101000   404.50686     -1642.3868      36.489583      36.510956      37.098066    
   1102000   406.75321     -1805.7938      36.489583      36.510956      37.098066    
   1103000   401.49801     -1366.6234      36.489583      36.510956      37.098066    
   1104000   405.55456     -1663.3055      36.489583      36.510956      37.098066    
   1105000   405.23922     -1534.2706      36.489583      36.510956      37.098066    
   1106000   408.6478      -1778.6994      36.489583      36.510956      37.098066    
   1107000   398.73387     -1373.759       36.489583      36.510956      37.098066    
   1108000   399.47961     -1506.4116      36.489583      36.510956      37.098066    
   1109000   406.56218     -1785.5538      36.489583      36.510956      37.098066    
   1110000   404.43398     -1587.122       36.489583      36.510956      37.098066    
   1111000   402.72222     -1503.0506      36.489583      36.510956      37.098066    
   1112000   396.34722     -1301.4917      36.489583      36.510956      37.098066    
   1113000   398.51948     -1316.6258      36.489583      36.510956      37.098066    
   1114000   398.98224     -1425.2587      36.489583      36.510956      37.098066    
   1115000   398.93363     -1321.1601      36.489583      36.510956      37.098066    
   1116000   404.41546     -1564.3321      36.489583      36.510956      37.098066    
   1117000   403.89611     -1541.9966      36.489583      36.510956      37.098066    
   1118000   405.04654     -1628.8608      36.489583      36.510956      37.098066    
   1119000   401.2681      -1496.201       36.489583      36.510956      37.098066    
   1120000   403.20084     -1522.9332      36.489583      36.510956      37.098066    
   1121000   405.67456     -1724.4792      36.489583      36.510956      37.098066    
   1122000   402.50778     -1712.4008      36.489583      36.510956      37.098066    
   1123000   401.93686     -1562.6608      36.489583      36.510956      37.098066    
   1124000   410.89724     -1976.494       36.489583      36.510956      37.098066    
   1125000   401.4319      -1466.763       36.489583      36.510956      37.098066    
   1126000   399.6231      -1474.9278      36.489583      36.510956      37.098066    
   1127000   395.15118     -1253.7009      36.489583      36.510956      37.098066    
   1128000   411.8906      -2026.0258      36.489583      36.510956      37.098066    
   1129000   404.97185     -1641.5139      36.489583      36.510956      37.098066    
   1130000   406.02705     -1721.9724      36.489583      36.510956      37.098066    
   1131000   400.34431     -1401.3948      36.489583      36.510956      37.098066    
   1132000   398.95922     -1305.0438      36.489583      36.510956      37.098066    
   1133000   389.70354     -951.73516      36.489583      36.510956      37.098066    
   1134000   400.96801     -1559.2387      36.489583      36.510956      37.098066    
   1135000   403.72105     -1601.5446      36.489583      36.510956      37.098066    
   1136000   398.92857     -1381.7687      36.489583      36.510956      37.098066    
   1137000   397.13354     -1252.9984      36.489583      36.510956      37.098066    
   1138000   402.1245      -1502.4878      36.489583      36.510956      37.098066    
   1139000   398.74925     -1230.1513      36.489583      36.510956      37.098066    
   1140000   402.21563     -1492.551       36.489583      36.510956      37.098066    
   1141000   396.71148     -1187.7934      36.489583      36.510956      37.098066    
   1142000   396.68797     -1222.9848      36.489583      36.510956      37.098066    
   1143000   406.42858     -1843.4119      36.489583      36.510956      37.098066    
   1144000   393.85812     -1048.8433      36.489583      36.510956      37.098066    
   1145000   398.14797     -1345.4293      36.489583      36.510956      37.098066    
   1146000   400.15857     -1425.6959      36.489583      36.510956      37.098066    
   1147000   406.91061     -1802.4669      36.489583      36.510956      37.098066    
   1148000   402.39676     -1571.4521      36.489583      36.510956      37.098066    
   1149000   399.40687     -1437.3467      36.489583      36.510956      37.098066    
   1150000   408.95668     -1970.4539      36.489583      36.510956      37.098066    
   1151000   408.32226     -1854.2469      36.489583      36.510956      37.098066    
   1152000   400.4837      -1442.5227      36.489583      36.510956      37.098066    
   1153000   410.17832     -1942.5999      36.489583      36.510956      37.098066    
   1154000   404.17337     -1691.6054      36.489583      36.510956      37.098066    
   1155000   403.69643     -1546.1416      36.489583      36.510956      37.098066    
   1156000   401.37145     -1531.4887      36.489583      36.510956      37.098066    
   1157000   403.22167     -1562.452       36.489583      36.510956      37.098066    
   1158000   400.86688     -1475.8357      36.489583      36.510956      37.098066    
   1159000   404.86273     -1657.0904      36.489583      36.510956      37.098066    
   1160000   405.2953      -1640.6181      36.489583      36.510956      37.098066    
   1161000   399.88263     -1443.3407      36.489583      36.510956      37.098066    
   1162000   405.82628     -1759.7928      36.489583      36.510956      37.098066    
   1163000   404.93513     -1708.4063      36.489583      36.510956      37.098066    
   1164000   394.46504     -1090.1199      36.489583      36.510956      37.098066    
   1165000   402.53764     -1221.6178      36.489583      36.510956      37.098066    
   1166000   407.08802     -1828.4593      36.489583      36.510956      37.098066    
   1167000   402.5788      -1490.2847      36.489583      36.510956      37.098066    
   1168000   409.38282     -1955.1312      36.489583      36.510956      37.098066    
   1169000   395.18869     -1103.5283      36.489583      36.510956      37.098066    
   1170000   396.13861     -1104.6551      36.489583      36.510956      37.098066    
   1171000   400.19264     -1379.1933      36.489583      36.510956      37.098066    
   1172000   396.00246     -1191.0086      36.489583      36.510956      37.098066    
   1173000   411.64975     -2032.9733      36.489583      36.510956      37.098066    
   1174000   402.18962     -1535.5812      36.489583      36.510956      37.098066    
   1175000   401.82506     -1601.2038      36.489583      36.510956      37.098066    
   1176000   404.80805     -1805.2363      36.489583      36.510956      37.098066    
   1177000   403.45169     -1675.578       36.489583      36.510956      37.098066    
   1178000   398.00495     -1502.1705      36.489583      36.510956      37.098066    
   1179000   405.17943     -1783.093       36.489583      36.510956      37.098066    
   1180000   404.04404     -1735.5385      36.489583      36.510956      37.098066    
   1181000   405.51375     -1715.3283      36.489583      36.510956      37.098066    
   1182000   398.67297     -1401.614       36.489583      36.510956      37.098066    
   1183000   399.5909      -1320.2072      36.489583      36.510956      37.098066    
   1184000   401.94502     -1509.4973      36.489583      36.510956      37.098066    
   1185000   403.78002     -1551.8262      36.489583      36.510956      37.098066    
   1186000   402.15158     -1422.2027      36.489583      36.510956      37.098066    
   1187000   400.99794     -1452.8479      36.489583      36.510956      37.098066    
   1188000   396.81921     -1286.8141      36.489583      36.510956      37.098066    
   1189000   401.81784     -1573.8366      36.489583      36.510956      37.098066    
   1190000   401.09301     -1489.6794      36.489583      36.510956      37.098066    
   1191000   398.98718     -1454.4849      36.489583      36.510956      37.098066    
   1192000   406.28425     -1768.4156      36.489583      36.510956      37.098066    
   1193000   397.43886     -1398.037       36.489583      36.510956      37.098066    
   1194000   402.76637     -1622.6749      36.489583      36.510956      37.098066    
   1195000   413.89673     -2288.4544      36.489583      36.510956      37.098066    
   1196000   402.4653      -1698.9342      36.489583      36.510956      37.098066    
   1197000   408.53174     -1926.932       36.489583      36.510956      37.098066    
   1198000   403.25686     -1640.181       36.489583      36.510956      37.098066    
   1199000   394.1039      -1112.483       36.489583      36.510956      37.098066    
   1200000   404.97714     -1692.225       36.489583      36.510956      37.098066    
   1201000   399.8636      -1490.6471      36.489583      36.510956      37.098066    
   1202000   406.33307     -1711.5395      36.489583      36.510956      37.098066    
   1203000   404.63553     -1722.5492      36.489583      36.510956      37.098066    
   1204000   402.87611     -1518.0669      36.489583      36.510956      37.098066    
   1205000   404.6828      -1709.992       36.489583      36.510956      37.098066    
   1206000   409.23872     -1883.8506      36.489583      36.510956      37.098066    
   1207000   408.52722     -1913.6624      36.489583      36.510956      37.098066    
   1208000   405.64399     -1742.4726      36.489583      36.510956      37.098066    
   1209000   406.2533      -1869.1459      36.489583      36.510956      37.098066    
   1210000   403.14982     -1616.9146      36.489583      36.510956      37.098066    
   1211000   401.97259     -1533.2665      36.489583      36.510956      37.098066    
   1212000   401.14191     -1478.1323      36.489583      36.510956      37.098066    
   1213000   410.38611     -2092.5087      36.489583      36.510956      37.098066    
   1214000   407.37458     -1755.9976      36.489583      36.510956      37.098066    
   1215000   400.04779     -1497.1172      36.489583      36.510956      37.098066    
   1216000   396.62816     -1205.2718      36.489583      36.510956      37.098066    
   1217000   404.17146     -1559.6585      36.489583      36.510956      37.098066    
   1218000   405.99328     -1745.7612      36.489583      36.510956      37.098066    
   1219000   401.0583      -1263.5553      36.489583      36.510956      37.098066    
   1220000   400.01845     -1259.1765      36.489583      36.510956      37.098066    
   1221000   398.11155     -1267.0538      36.489583      36.510956      37.098066    
   1222000   405.57236     -1719.4586      36.489583      36.510956      37.098066    
   1223000   404.89034     -1735.2769      36.489583      36.510956      37.098066    
   1224000   411.65167     -1967.0581      36.489583      36.510956      37.098066    
   1225000   401.33486     -1512.8526      36.489583      36.510956      37.098066    
   1226000   404.24458     -1585.2875      36.489583      36.510956      37.098066    
   1227000   406.0177      -1787.0796      36.489583      36.510956      37.098066    
   1228000   393.37889     -1249.8551      36.489583      36.510956      37.098066    
   1229000   402.63585     -1626.028       36.489583      36.510956      37.098066    
   1230000   403.21076     -1621.8542      36.489583      36.510956      37.098066    
   1231000   414.02312     -2190.1984      36.489583      36.510956      37.098066    
   1232000   400.97405     -1492.8899      36.489583      36.510956      37.098066    
   1233000   403.16912     -1515.9568      36.489583      36.510956      37.098066    
   1234000   404.15011     -1620.3483      36.489583      36.510956      37.098066    
   1235000   390.13165     -960.23796      36.489583      36.510956      37.098066    
   1236000   397.456       -1380.0828      36.489583      36.510956      37.098066    
   1237000   403.09161     -1644.314       36.489583      36.510956      37.098066    
   1238000   402.88409     -1575.1323      36.489583      36.510956      37.098066    
   1239000   401.95386     -1619.6698      36.489583      36.510956      37.098066    
   1240000   404.14159     -1694.8351      36.489583      36.510956      37.098066    
   1241000   395.26594     -1123.3349      36.489583      36.510956      37.098066    
   1242000   401.73063     -1417.4807      36.489583      36.510956      37.098066    
   1243000   397.63487     -1297.5571      36.489583      36.510956      37.098066    
   1244000   407.85914     -1783.9         36.489583      36.510956      37.098066    
   1245000   401.00234     -1437.2047      36.489583      36.510956      37.098066    
   1246000   401.37478     -1462.6293      36.489583      36.510956      37.098066    
   1247000   409.45995     -1820.447       36.489583      36.510956      37.098066    
   1248000   395.45571     -1141.4192      36.489583      36.510956      37.098066    
   1249000   401.0088      -1488.8714      36.489583      36.510956      37.098066    
   1250000   401.43653     -1415.5035      36.489583      36.510956      37.098066    
   1251000   410.33428     -1990.5347      36.489583      36.510956      37.098066    
   1252000   404.55082     -1690.5212      36.489583      36.510956      37.098066    
   1253000   406.96593     -1671.683       36.489583      36.510956      37.098066    
   1254000   403.60981     -1615.7426      36.489583      36.510956      37.098066    
   1255000   407.0232      -1757.6575      36.489583      36.510956      37.098066    
   1256000   401.19658     -1410.0111      36.489583      36.510956      37.098066    
   1257000   408.34609     -1791.6292      36.489583      36.510956      37.098066    
   1258000   402.27262     -1541.1139      36.489583      36.510956      37.098066    
   1259000   407.75711     -1849.8045      36.489583      36.510956      37.098066    
   1260000   401.28062     -1536.1587      36.489583      36.510956      37.098066    
   1261000   400.74902     -1507.3471      36.489583      36.510956      37.098066    
   1262000   406.26672     -1878.2716      36.489583      36.510956      37.098066    
   1263000   396.81715     -1217.3968      36.489583      36.510956      37.098066    
   1264000   402.72065     -1638.2247      36.489583      36.510956      37.098066    
   1265000   404.80111     -1733.1536      36.489583      36.510956      37.098066    
   1266000   414.48595     -2091.1814      36.489583      36.510956      37.098066    
   1267000   403.44583     -1662.3277      36.489583      36.510956      37.098066    
   1268000   401.01935     -1434.997       36.489583      36.510956      37.098066    
   1269000   398.95162     -1329.488       36.489583      36.510956      37.098066    
   1270000   399.56295     -1298.2625      36.489583      36.510956      37.098066    
   1271000   401.13169     -1432.4326      36.489583      36.510956      37.098066    
   1272000   404.41724     -1769.6642      36.489583      36.510956      37.098066    
   1273000   411.75141     -1986.2901      36.489583      36.510956      37.098066    
   1274000   406.78851     -1758.4202      36.489583      36.510956      37.098066    
   1275000   410.62693     -1962.6894      36.489583      36.510956      37.098066    
   1276000   392.4293      -1020.3203      36.489583      36.510956      37.098066    
   1277000   399.7962      -1532.9882      36.489583      36.510956      37.098066    
   1278000   402.88408     -1468.5661      36.489583      36.510956      37.098066    
   1279000   397.29566     -1141.7316      36.489583      36.510956      37.098066    
   1280000   403.57948     -1434.3351      36.489583      36.510956      37.098066    
   1281000   404.38103     -1594.3795      36.489583      36.510956      37.098066    
   1282000   402.01676     -1377.6936      36.489583      36.510956      37.098066    
   1283000   400.39393     -1295.5971      36.489583      36.510956      37.098066    
   1284000   399.21875     -1183.8423      36.489583      36.510956      37.098066    
   1285000   396.31332     -1068.2167      36.489583      36.510956      37.098066    
   1286000   398.64632     -1261.1416      36.489583      36.510956      37.098066    
   1287000   406.24095     -1603.3896      36.489583      36.510956      37.098066    
   1288000   398.52088     -1222.1602      36.489583      36.510956      37.098066    
   1289000   401.09126     -1333.3861      36.489583      36.510956      37.098066    
   1290000   400.37802     -1353.4554      36.489583      36.510956      37.098066    
   1291000   394.25131     -1081.979       36.489583      36.510956      37.098066    
   1292000   399.55971     -1489.9292      36.489583      36.510956      37.098066    
   1293000   400.72522     -1493.5018      36.489583      36.510956      37.098066    
   1294000   400.86475     -1522.2447      36.489583      36.510956      37.098066    
   1295000   401.97397     -1550.5494      36.489583      36.510956      37.098066    
   1296000   393.37727     -1065.1326      36.489583      36.510956      37.098066    
   1297000   396.59834     -1210.6504      36.489583      36.510956      37.098066    
   1298000   399.56995     -1468.5492      36.489583      36.510956      37.098066    
   1299000   405.55723     -1794.7363      36.489583      36.510956      37.098066    
   1300000   394.20093     -1110.8484      36.489583      36.510956      37.098066    
   1301000   391.97902     -1070.6134      36.489583      36.510956      37.098066    
   1302000   397.76717     -1330.5606      36.489583      36.510956      37.098066    
   1303000   388.82437     -809.87308      36.489583      36.510956      37.098066    
   1304000   400.32516     -1462.6885      36.489583      36.510956      37.098066    
   1305000   399.34265     -1440.1146      36.489583      36.510956      37.098066    
   1306000   402.31652     -1547.8416      36.489583      36.510956      37.098066    
   1307000   400.14495     -1507.6505      36.489583      36.510956      37.098066    
   1308000   405.29665     -1593.9631      36.489583      36.510956      37.098066    
   1309000   402.35571     -1559.8488      36.489583      36.510956      37.098066    
   1310000   401.68102     -1488.7119      36.489583      36.510956      37.098066    
   1311000   407.92792     -1934.7288      36.489583      36.510956      37.098066    
   1312000   400.69836     -1451.0744      36.489583      36.510956      37.098066    
   1313000   403.44606     -1583.7771      36.489583      36.510956      37.098066    
   1314000   405.2989      -1588.8043      36.489583      36.510956      37.098066    
   1315000   405.58002     -1824.238       36.489583      36.510956      37.098066    
   1316000   403.60152     -1628.3358      36.489583      36.510956      37.098066    
   1317000   413.02042     -2110.4004      36.489583      36.510956      37.098066    
   1318000   400.9835      -1301.0534      36.489583      36.510956      37.098066    
   1319000   396.50549     -1282.5567      36.489583      36.510956      37.098066    
   1320000   403.37213     -1711.2052      36.489583      36.510956      37.098066    
   1321000   402.0184      -1593.7489      36.489583      36.510956      37.098066    
   1322000   397.74134     -1219.5892      36.489583      36.510956      37.098066    
   1323000   404.60704     -1617.8366      36.489583      36.510956      37.098066    
   1324000   404.85536     -1629.9665      36.489583      36.510956      37.098066    
   1325000   409.20944     -2039.6817      36.489583      36.510956      37.098066    
   1326000   402.67996     -1540.2827      36.489583      36.510956      37.098066    
   1327000   402.63037     -1535.1524      36.489583      36.510956      37.098066    
   1328000   403.4161      -1488.0825      36.489583      36.510956      37.098066    
   1329000   403.0067      -1495.1873      36.489583      36.510956      37.098066    
   1330000   398.25156     -1300.3041      36.489583      36.510956      37.098066    
   1331000   401.3912      -1542.4214      36.489583      36.510956      37.098066    
   1332000   404.50045     -1644.0816      36.489583      36.510956      37.098066    
   1333000   394.56048     -1217.6841      36.489583      36.510956      37.098066    
   1334000   403.36233     -1562.2906      36.489583      36.510956      37.098066    
   1335000   390.98718     -909.91337      36.489583      36.510956      37.098066    
   1336000   404.9951      -1602.9809      36.489583      36.510956      37.098066    
   1337000   402.27517     -1384.0937      36.489583      36.510956      37.098066    
   1338000   407.0262      -1730.0996      36.489583      36.510956      37.098066    
   1339000   393.99958     -1070.7475      36.489583      36.510956      37.098066    
   1340000   403.38447     -1615.5618      36.489583      36.510956      37.098066    
   1341000   399.09895     -1344.715       36.489583      36.510956      37.098066    
   1342000   408.39511     -1851.5629      36.489583      36.510956      37.098066    
   1343000   405.18822     -1589.3632      36.489583      36.510956      37.098066    
   1344000   398.10518     -1359.6012      36.489583      36.510956      37.098066    
   1345000   403.76986     -1620.3432      36.489583      36.510956      37.098066    
   1346000   402.23239     -1588.9238      36.489583      36.510956      37.098066    
   1347000   406.03027     -1692.3472      36.489583      36.510956      37.098066    
   1348000   392.84448     -1085.1601      36.489583      36.510956      37.098066    
   1349000   400.4707      -1545.3627      36.489583      36.510956      37.098066    
   1350000   400.41263     -1422.1868      36.489583      36.510956      37.098066    
   1351000   406.11036     -1784.031       36.489583      36.510956      37.098066    
   1352000   406.31032     -1892.5029      36.489583      36.510956      37.098066    
   1353000   398.76396     -1410.8916      36.489583      36.510956      37.098066    
   1354000   408.41791     -1952.9616      36.489583      36.510956      37.098066    
   1355000   408.21321     -2016.407       36.489583      36.510956      37.098066    
   1356000   408.27432     -1978.6617      36.489583      36.510956      37.098066    
   1357000   406.32707     -1796.9924      36.489583      36.510956      37.098066    
   1358000   400.25484     -1645.4534      36.489583      36.510956      37.098066    
   1359000   399.6196      -1465.1115      36.489583      36.510956      37.098066    
   1360000   407.19935     -1857.7615      36.489583      36.510956      37.098066    
   1361000   400.58833     -1509.2159      36.489583      36.510956      37.098066    
   1362000   405.62287     -1783.7853      36.489583      36.510956      37.098066    
   1363000   399.70124     -1409.6815      36.489583      36.510956      37.098066    
   1364000   399.20607     -1391.0841      36.489583      36.510956      37.098066    
   1365000   405.3093      -1661.7235      36.489583      36.510956      37.098066    
   1366000   401.51936     -1492.7118      36.489583      36.510956      37.098066    
   1367000   403.91765     -1584.6573      36.489583      36.510956      37.098066    
   1368000   398.46711     -1281.5721      36.489583      36.510956      37.098066    
   1369000   410.07934     -1885.9664      36.489583      36.510956      37.098066    
   1370000   404.75455     -1635.9481      36.489583      36.510956      37.098066    
   1371000   399.93408     -1388.6429      36.489583      36.510956      37.098066    
   1372000   402.56348     -1546.8323      36.489583      36.510956      37.098066    
   1373000   410.66785     -1954.0712      36.489583      36.510956      37.098066    
   1374000   403.98975     -1621.01        36.489583      36.510956      37.098066    
   1375000   402.45844     -1632.9347      36.489583      36.510956      37.098066    
   1376000   404.26907     -1578.6482      36.489583      36.510956      37.098066    
   1377000   397.03249     -1211.9369      36.489583      36.510956      37.098066    
   1378000   404.81481     -1737.0441      36.489583      36.510956      37.098066    
   1379000   398.28976     -1291.9062      36.489583      36.510956      37.098066    
   1380000   406.99818     -1813.7311      36.489583      36.510956      37.098066    
   1381000   409.17325     -1878.8706      36.489583      36.510956      37.098066    
   1382000   405.2603      -1749.8891      36.489583      36.510956      37.098066    
   1383000   399.3022      -1414.9669      36.489583      36.510956      37.098066    
   1384000   395.27606     -1249.3706      36.489583      36.510956      37.098066    
   1385000   397.47793     -1280.2608      36.489583      36.510956      37.098066    
   1386000   404.61827     -1690.7086      36.489583      36.510956      37.098066    
   1387000   400.41641     -1444.7245      36.489583      36.510956      37.098066    
   1388000   397.01304     -1315.8223      36.489583      36.510956      37.098066    
   1389000   395.97168     -1229.4326      36.489583      36.510956      37.098066    
   1390000   402.63884     -1439.264       36.489583      36.510956      37.098066    
   1391000   402.57927     -1542.2804      36.489583      36.510956      37.098066    
   1392000   400.26713     -1356.3864      36.489583      36.510956      37.098066    
   1393000   403.97733     -1684.4605      36.489583      36.510956      37.098066    
   1394000   402.81245     -1624.8162      36.489583      36.510956      37.098066    
   1395000   398.7399      -1349.7414      36.489583      36.510956      37.098066    
   1396000   393.45621     -1117.4953      36.489583      36.510956      37.098066    
   1397000   394.89958     -1078.1747      36.489583      36.510956      37.098066    
   1398000   405.08087     -1691.1098      36.489583      36.510956      37.098066    
   1399000   398.29281     -1322.454       36.489583      36.510956      37.098066    
   1400000   394.81975     -1129.6394      36.489583      36.510956      37.098066    
   1401000   400.41136     -1289.7999      36.489583      36.510956      37.098066    
   1402000   394.61703     -1096.1499      36.489583      36.510956      37.098066    
   1403000   408.19971     -1729.9727      36.489583      36.510956      37.098066    
   1404000   400.0257      -1337.6068      36.489583      36.510956      37.098066    
   1405000   401.89361     -1457.4212      36.489583      36.510956      37.098066    
   1406000   406.12302     -1716.4663      36.489583      36.510956      37.098066    
   1407000   397.90737     -1304.7708      36.489583      36.510956      37.098066    
   1408000   396.17989     -1160.2221      36.489583      36.510956      37.098066    
   1409000   399.91539     -1317.9062      36.489583      36.510956      37.098066    
   1410000   403.74907     -1596.2335      36.489583      36.510956      37.098066    
   1411000   399.49856     -1324.2959      36.489583      36.510956      37.098066    
   1412000   399.36627     -1398.9303      36.489583      36.510956      37.098066    
   1413000   404.03178     -1787.8065      36.489583      36.510956      37.098066    
   1414000   410.0451      -2036.412       36.489583      36.510956      37.098066    
   1415000   398.39928     -1352.5396      36.489583      36.510956      37.098066    
   1416000   410.45987     -1771.5999      36.489583      36.510956      37.098066    
   1417000   400.79108     -1368.1047      36.489583      36.510956      37.098066    
   1418000   400.1889      -1376.1481      36.489583      36.510956      37.098066    
   1419000   405.52542     -1577.2991      36.489583      36.510956      37.098066    
   1420000   401.52979     -1277.0141      36.489583      36.510956      37.098066    
   1421000   393.08182     -917.94452      36.489583      36.510956      37.098066    
   1422000   402.86127     -1359.655       36.489583      36.510956      37.098066    
   1423000   401.06915     -1368.6459      36.489583      36.510956      37.098066    
   1424000   401.77396     -1402.1183      36.489583      36.510956      37.098066    
   1425000   407.58727     -1813.3209      36.489583      36.510956      37.098066    
   1426000   403.28842     -1583.1657      36.489583      36.510956      37.098066    
   1427000   398.49542     -1271.4578      36.489583      36.510956      37.098066    
   1428000   401.46568     -1447.4148      36.489583      36.510956      37.098066    
   1429000   400.19287     -1271.5935      36.489583      36.510956      37.098066    
   1430000   399.2599      -1292.2966      36.489583      36.510956      37.098066    
   1431000   401.79955     -1470.9703      36.489583      36.510956      37.098066    
   1432000   407.51626     -1708.2464      36.489583      36.510956      37.098066    
   1433000   401.12274     -1493.9052      36.489583      36.510956      37.098066    
   1434000   400.95797     -1478.5935      36.489583      36.510956      37.098066    
   1435000   402.59786     -1633.6662      36.489583      36.510956      37.098066    
   1436000   404.36136     -1677.651       36.489583      36.510956      37.098066    
   1437000   400.82599     -1556.7888      36.489583      36.510956      37.098066    
   1438000   403.72371     -1575.8311      36.489583      36.510956      37.098066    
   1439000   397.61        -1224.038       36.489583      36.510956      37.098066    
   1440000   405.53867     -1644.9352      36.489583      36.510956      37.098066    
   1441000   406.70502     -1689.033       36.489583      36.510956      37.098066    
   1442000   406.25236     -1684.4779      36.489583      36.510956      37.098066    
   1443000   400.12365     -1118.6485      36.489583      36.510956      37.098066    
   1444000   398.97207     -1209.7622      36.489583      36.510956      37.098066    
   1445000   392.3157      -963.55294      36.489583      36.510956      37.098066    
   1446000   410.05156     -1895.0762      36.489583      36.510956      37.098066    
   1447000   402.12413     -1589.8429      36.489583      36.510956      37.098066    
   1448000   402.02524     -1499.171       36.489583      36.510956      37.098066    
   1449000   399.98344     -1512.681       36.489583      36.510956      37.098066    
   1450000   406.80936     -1739.5104      36.489583      36.510956      37.098066    
   1451000   397.72874     -1058.6435      36.489583      36.510956      37.098066    
   1452000   402.79251     -1314.5153      36.489583      36.510956      37.098066    
   1453000   410.31202     -1873.6038      36.489583      36.510956      37.098066    
   1454000   395.82109     -1170.796       36.489583      36.510956      37.098066    
   1455000   400.25713     -1384.271       36.489583      36.510956      37.098066    
   1456000   396.35561     -1232.3638      36.489583      36.510956      37.098066    
   1457000   392.08339     -902.13511      36.489583      36.510956      37.098066    
   1458000   397.29671     -1153.4152      36.489583      36.510956      37.098066    
   1459000   404.2915      -1558.7336      36.489583      36.510956      37.098066    
   1460000   403.90966     -1592.7928      36.489583      36.510956      37.098066    
   1461000   399.15188     -1464.1636      36.489583      36.510956      37.098066    
   1462000   414.38226     -2150.0156      36.489583      36.510956      37.098066    
   1463000   403.55355     -1550.4019      36.489583      36.510956      37.098066    
   1464000   404.37959     -1630.7539      36.489583      36.510956      37.098066    
   1465000   405.04564     -1723.1224      36.489583      36.510956      37.098066    
   1466000   408.69124     -1827.3571      36.489583      36.510956      37.098066    
   1467000   399.14197     -1430.1991      36.489583      36.510956      37.098066    
   1468000   402.74733     -1427.1564      36.489583      36.510956      37.098066    
   1469000   402.02623     -1491.1282      36.489583      36.510956      37.098066    
   1470000   402.74408     -1523.8071      36.489583      36.510956      37.098066    
   1471000   394.86129     -1059.7113      36.489583      36.510956      37.098066    
   1472000   399.37298     -1303.6643      36.489583      36.510956      37.098066    
   1473000   412.3615      -2052.2006      36.489583      36.510956      37.098066    
   1474000   403.95221     -1620.9543      36.489583      36.510956      37.098066    
   1475000   395.90597     -1200.4037      36.489583      36.510956      37.098066    
   1476000   401.4931      -1453.8249      36.489583      36.510956      37.098066    
   1477000   401.49565     -1543.3655      36.489583      36.510956      37.098066    
   1478000   403.13249     -1583.0593      36.489583      36.510956      37.098066    
   1479000   393.89153     -1011.8325      36.489583      36.510956      37.098066    
   1480000   404.05568     -1583.9614      36.489583      36.510956      37.098066    
   1481000   402.07608     -1596.2529      36.489583      36.510956      37.098066    
   1482000   395.47645     -1124.3439      36.489583      36.510956      37.098066    
   1483000   407.75587     -1809.2736      36.489583      36.510956      37.098066    
   1484000   405.89737     -1716.4814      36.489583      36.510956      37.098066    
   1485000   400.4871      -1466.6704      36.489583      36.510956      37.098066    
   1486000   400.33636     -1282.8819      36.489583      36.510956      37.098066    
   1487000   397.49266     -1225.522       36.489583      36.510956      37.098066    
   1488000   394.12175     -1030.0984      36.489583      36.510956      37.098066    
   1489000   410.26781     -1950.5238      36.489583      36.510956      37.098066    
   1490000   401.24572     -1446.8762      36.489583      36.510956      37.098066    
   1491000   400.7508      -1256.7923      36.489583      36.510956      37.098066    
   1492000   400.11391     -1359.0913      36.489583      36.510956      37.098066    
   1493000   406.01097     -1588.7445      36.489583      36.510956      37.098066    
   1494000   400.44545     -1470.8725      36.489583      36.510956      37.098066    
   1495000   409.27862     -1880.8492      36.489583      36.510956      37.098066    
   1496000   402.5344      -1532.7597      36.489583      36.510956      37.098066    
   1497000   402.59526     -1530.0108      36.489583      36.510956      37.098066    
   1498000   400.67315     -1468.7235      36.489583      36.510956      37.098066    
   1499000   402.5428      -1558.763       36.489583      36.510956      37.098066    
   1500000   405.99976     -1806.7925      36.489583      36.510956      37.098066    
Loop time of 156.248 on 40 procs for 500000 steps with 2592 atoms

Performance: 276.484 ns/day, 0.087 hours/ns, 3200.049 timesteps/s, 8.295 Matom-step/s
91.1% CPU use with 40 MPI tasks x no OpenMP threads

MPI task timing breakdown:
Section |  min time  |  avg time  |  max time  |%varavg| %total
---------------------------------------------------------------
Pair    | 41.401     | 48.716     | 55.199     |  62.6 | 31.18
Neigh   | 4.9874     | 5.5754     | 6.2247     |  17.2 |  3.57
Comm    | 75.853     | 81.971     | 88.737     |  47.7 | 52.46
Output  | 0.013895   | 0.014526   | 0.019511   |   0.8 |  0.01
Modify  | 10.959     | 13.256     | 15.361     |  41.7 |  8.48
Other   |            | 6.714      |            |       |  4.30

Nlocal:           64.8 ave          75 max          55 min
Histogram: 2 3 5 3 4 3 11 5 3 1
Nghost:        1601.42 ave        1644 max        1555 min
Histogram: 8 0 0 3 4 7 8 2 6 2
Neighs:         7724.4 ave        9202 max        6151 min
Histogram: 4 3 3 2 5 3 9 5 4 2

Total # of neighbors = 308976
Ave neighs/atom = 119.2037
Neighbor list builds = 24685
Dangerous builds = 0

CITE-CITE-CITE-CITE-CITE-CITE-CITE-CITE-CITE-CITE-CITE-CITE-CITE

Your simulation uses code contributions which should be cited:
- compute centroid/stress/atom for angles, impropers and dihedrals: doi:10.1103/PhysRevE.99.051301
- compute centroid/stress/atom for constrained dynamics: doi:10.1063/5.0070930
The log file lists these citations in BibTeX format.

CITE-CITE-CITE-CITE-CITE-CITE-CITE-CITE-CITE-CITE-CITE-CITE-CITE

Generated 0 of 1 mixed pair_coeff terms from geometric mixing rule
WARNING: More than one compute ke/atom (../compute_ke_atom.cpp:51)
WARNING: More than one compute ke/atom (../compute_ke_atom.cpp:51)
WARNING: More than one compute ke/atom (../compute_ke_atom.cpp:51)
Setting up Verlet run ...
  Unit style    : metal
  Current step  : 0
  Time step     : 0.001
Per MPI rank memory allocation (min/avg/max) = 8.4 | 8.413 | 8.419 Mbytes
   Step          Temp          Press            Lx             Ly             Lz      
         0   405.99976     -1806.7925      36.489583      36.510956      37.098066    
      1000   406.48667     -1831.559       36.489583      36.510956      37.098066    
      2000   402.9225      -1584.6583      36.489583      36.510956      37.098066    
      3000   395.71773     -1198.1304      36.489583      36.510956      37.098066    
      4000   403.64588     -1652.4424      36.489583      36.510956      37.098066    
      5000   399.55707     -1432.3815      36.489583      36.510956      37.098066    
      6000   406.14146     -1704.7343      36.489583      36.510956      37.098066    
      7000   401.95236     -1560.7577      36.489583      36.510956      37.098066    
      8000   407.69089     -1846.1686      36.489583      36.510956      37.098066    
      9000   402.44311     -1721.3485      36.489583      36.510956      37.098066    
     10000   404.65148     -1780.0084      36.489583      36.510956      37.098066    
     11000   402.67418     -1670.6028      36.489583      36.510956      37.098066    
     12000   401.17308     -1587.268       36.489583      36.510956      37.098066    
     13000   408.24123     -1907.2833      36.489583      36.510956      37.098066    
     14000   398.92545     -1257.0194      36.489583      36.510956      37.098066    
     15000   406.30588     -1771.3838      36.489583      36.510956      37.098066    
     16000   401.9652      -1516.2996      36.489583      36.510956      37.098066    
     17000   405.00766     -1763.6892      36.489583      36.510956      37.098066    
     18000   401.26061     -1460.6665      36.489583      36.510956      37.098066    
     19000   393.86393     -1057.9133      36.489583      36.510956      37.098066    
     20000   399.96547     -1376.7731      36.489583      36.510956      37.098066    
     21000   407.28863     -1694.4012      36.489583      36.510956      37.098066    
     22000   400.06783     -1388.9881      36.489583      36.510956      37.098066    
     23000   404.38452     -1640.8502      36.489583      36.510956      37.098066    
     24000   404.45128     -1672.1207      36.489583      36.510956      37.098066    
     25000   401.83228     -1551.872       36.489583      36.510956      37.098066    
     26000   403.79751     -1604.1682      36.489583      36.510956      37.098066    
     27000   398.22686     -1319.1686      36.489583      36.510956      37.098066    
     28000   396.02325     -1158.8373      36.489583      36.510956      37.098066    
     29000   407.79438     -1747.552       36.489583      36.510956      37.098066    
     30000   400.55582     -1414.0504      36.489583      36.510956      37.098066    
     31000   409.70157     -1920.2434      36.489583      36.510956      37.098066    
     32000   409.76794     -1909.7562      36.489583      36.510956      37.098066    
     33000   395.32219     -1124.1706      36.489583      36.510956      37.098066    
     34000   402.18357     -1533.3526      36.489583      36.510956      37.098066    
     35000   416.52074     -2286.6013      36.489583      36.510956      37.098066    
     36000   396.93021     -1331.4103      36.489583      36.510956      37.098066    
     37000   403.17084     -1562.0466      36.489583      36.510956      37.098066    
     38000   401.73065     -1477.4276      36.489583      36.510956      37.098066    
     39000   407.66997     -1801.0698      36.489583      36.510956      37.098066    
     40000   401.6899      -1453.9622      36.489583      36.510956      37.098066    
     41000   408.92507     -1979.2441      36.489583      36.510956      37.098066    
     42000   397.87372     -1315.4564      36.489583      36.510956      37.098066    
     43000   393.80119     -1104.3504      36.489583      36.510956      37.098066    
     44000   398.17201     -1188.3268      36.489583      36.510956      37.098066    
     45000   399.85824     -1400.6726      36.489583      36.510956      37.098066    
     46000   404.06474     -1625.8576      36.489583      36.510956      37.098066    
     47000   405.99453     -1768.99        36.489583      36.510956      37.098066    
     48000   404.59949     -1744.7194      36.489583      36.510956      37.098066    
     49000   394.41398     -1009.4697      36.489583      36.510956      37.098066    
     50000   399.25032     -1290.9722      36.489583      36.510956      37.098066    
     51000   403.28647     -1536.3056      36.489583      36.510956      37.098066    
     52000   404.07057     -1622.045       36.489583      36.510956      37.098066    
     53000   403.27395     -1594.9211      36.489583      36.510956      37.098066    
     54000   401.80092     -1481.4107      36.489583      36.510956      37.098066    
     55000   398.97339     -1309.2212      36.489583      36.510956      37.098066    
     56000   400.73675     -1450.0281      36.489583      36.510956      37.098066    
     57000   404.42694     -1584.2594      36.489583      36.510956      37.098066    
     58000   394.26285     -1015.0507      36.489583      36.510956      37.098066    
     59000   407.84737     -1779.7962      36.489583      36.510956      37.098066    
     60000   401.03385     -1459.3708      36.489583      36.510956      37.098066    
     61000   409.52173     -2036.2641      36.489583      36.510956      37.098066    
     62000   398.8905      -1436.4117      36.489583      36.510956      37.098066    
     63000   398.66202     -1366.6875      36.489583      36.510956      37.098066    
     64000   404.32196     -1611.7816      36.489583      36.510956      37.098066    
     65000   398.18288     -1254.5355      36.489583      36.510956      37.098066    
     66000   405.06198     -1674.2465      36.489583      36.510956      37.098066    
     67000   399.6726      -1422.524       36.489583      36.510956      37.098066    
     68000   400.14102     -1386.1012      36.489583      36.510956      37.098066    
     69000   396.85366     -1167.2196      36.489583      36.510956      37.098066    
     70000   398.63154     -1307.1303      36.489583      36.510956      37.098066    
     71000   406.81649     -1757.7869      36.489583      36.510956      37.098066    
     72000   396.38484     -1184.5702      36.489583      36.510956      37.098066    
     73000   401.27019     -1462.286       36.489583      36.510956      37.098066    
     74000   401.70511     -1458.8991      36.489583      36.510956      37.098066    
     75000   396.26547     -1227.3581      36.489583      36.510956      37.098066    
     76000   405.76324     -1733.5902      36.489583      36.510956      37.098066    
     77000   405.49573     -1758.8971      36.489583      36.510956      37.098066    
     78000   402.82752     -1670.4777      36.489583      36.510956      37.098066    
     79000   397.73893     -1310.716       36.489583      36.510956      37.098066    
     80000   395.07109     -1159.5481      36.489583      36.510956      37.098066    
     81000   407.85076     -1728.0573      36.489583      36.510956      37.098066    
     82000   395.8519      -1044.5464      36.489583      36.510956      37.098066    
     83000   397.36721     -1232.3084      36.489583      36.510956      37.098066    
     84000   399.6979      -1362.2648      36.489583      36.510956      37.098066    
     85000   405.35104     -1718.1671      36.489583      36.510956      37.098066    
     86000   398.81419     -1298.2562      36.489583      36.510956      37.098066    
     87000   392.09413     -938.61679      36.489583      36.510956      37.098066    
     88000   406.27053     -1703.4115      36.489583      36.510956      37.098066    
     89000   404.07964     -1607.7404      36.489583      36.510956      37.098066    
     90000   409.2478      -1856.3943      36.489583      36.510956      37.098066    
     91000   407.27523     -1730.6259      36.489583      36.510956      37.098066    
     92000   400.22586     -1346.5743      36.489583      36.510956      37.098066    
     93000   401.08873     -1394.3583      36.489583      36.510956      37.098066    
     94000   400.60787     -1542.1924      36.489583      36.510956      37.098066    
     95000   400.96572     -1392.7391      36.489583      36.510956      37.098066    
     96000   389.02327     -779.70286      36.489583      36.510956      37.098066    
     97000   401.97478     -1449.7227      36.489583      36.510956      37.098066    
     98000   399.98687     -1308.4397      36.489583      36.510956      37.098066    
     99000   403.30523     -1499.4996      36.489583      36.510956      37.098066    
    100000   392.68052     -1025.4492      36.489583      36.510956      37.098066    
    101000   405.05321     -1633.0251      36.489583      36.510956      37.098066    
    102000   400.18203     -1249.5257      36.489583      36.510956      37.098066    
    103000   402.43272     -1428.1032      36.489583      36.510956      37.098066    
    104000   400.25114     -1353.7535      36.489583      36.510956      37.098066    
    105000   394.28791     -1189.1783      36.489583      36.510956      37.098066    
    106000   402.15264     -1342.5695      36.489583      36.510956      37.098066    
    107000   399.27132     -1334.9444      36.489583      36.510956      37.098066    
    108000   391.04854     -755.12281      36.489583      36.510956      37.098066    
    109000   400.85483     -1321.6747      36.489583      36.510956      37.098066    
    110000   401.75844     -1381.9087      36.489583      36.510956      37.098066    
    111000   410.60867     -1816.2854      36.489583      36.510956      37.098066    
    112000   400.80982     -1360.3119      36.489583      36.510956      37.098066    
    113000   392.90105     -967.05657      36.489583      36.510956      37.098066    
    114000   395.95596     -1146.8754      36.489583      36.510956      37.098066    
    115000   399.27411     -1303.2246      36.489583      36.510956      37.098066    
    116000   400.72142     -1476.0004      36.489583      36.510956      37.098066    
    117000   399.85037     -1293.2115      36.489583      36.510956      37.098066    
    118000   390.08761     -781.0043       36.489583      36.510956      37.098066    
    119000   395.81066     -1199.119       36.489583      36.510956      37.098066    
    120000   400.42602     -1380.6243      36.489583      36.510956      37.098066    
    121000   405.62098     -1559.7831      36.489583      36.510956      37.098066    
    122000   401.48935     -1420.2614      36.489583      36.510956      37.098066    
    123000   394.34748     -1040.2537      36.489583      36.510956      37.098066    
    124000   393.15806     -855.48469      36.489583      36.510956      37.098066    
    125000   404.13189     -1703.5485      36.489583      36.510956      37.098066    
    126000   405.08389     -1636.0986      36.489583      36.510956      37.098066    
    127000   406.63187     -1738.2317      36.489583      36.510956      37.098066    
    128000   397.58585     -1167.2293      36.489583      36.510956      37.098066    
    129000   402.12207     -1393.3364      36.489583      36.510956      37.098066    
    130000   391.33697     -863.18629      36.489583      36.510956      37.098066    
    131000   399.81015     -1455.2442      36.489583      36.510956      37.098066    
    132000   389.14981     -867.48582      36.489583      36.510956      37.098066    
    133000   399.73898     -1469.0633      36.489583      36.510956      37.098066    
    134000   398.82641     -1342.4211      36.489583      36.510956      37.098066    
    135000   399.49711     -1375.1338      36.489583      36.510956      37.098066    
    136000   393.42468     -1163.244       36.489583      36.510956      37.098066    
    137000   395.45947     -1092.8134      36.489583      36.510956      37.098066    
    138000   400.14618     -1325.7262      36.489583      36.510956      37.098066    
    139000   401.02417     -1401.4345      36.489583      36.510956      37.098066    
    140000   395.27526     -1119.3193      36.489583      36.510956      37.098066    
    141000   397.26874     -1276.9334      36.489583      36.510956      37.098066    
    142000   404.2622      -1661.4009      36.489583      36.510956      37.098066    
    143000   407.55231     -1967.4816      36.489583      36.510956      37.098066    
    144000   399.66083     -1390.8193      36.489583      36.510956      37.098066    
    145000   398.5919      -1422.4741      36.489583      36.510956      37.098066    
    146000   393.45905     -1120.1489      36.489583      36.510956      37.098066    
    147000   398.20634     -1218.0366      36.489583      36.510956      37.098066    
    148000   394.03546     -1041.13        36.489583      36.510956      37.098066    
    149000   397.87058     -1133.9402      36.489583      36.510956      37.098066    
    150000   398.90401     -1287.0861      36.489583      36.510956      37.098066    
    151000   405.63452     -1492.0131      36.489583      36.510956      37.098066    
    152000   405.10016     -1618.069       36.489583      36.510956      37.098066    
    153000   402.03908     -1395.7112      36.489583      36.510956      37.098066    
    154000   394.65286     -1074.3628      36.489583      36.510956      37.098066    
    155000   410.31153     -2003.2819      36.489583      36.510956      37.098066    
    156000   393.64312     -1063.4619      36.489583      36.510956      37.098066    
    157000   397.0763      -1176.3791      36.489583      36.510956      37.098066    
    158000   393.78659     -1042.6282      36.489583      36.510956      37.098066    
    159000   407.06062     -1652.2267      36.489583      36.510956      37.098066    
    160000   391.90269     -942.13679      36.489583      36.510956      37.098066    
    161000   400.81413     -1347.5285      36.489583      36.510956      37.098066    
    162000   397.01702     -1262.3182      36.489583      36.510956      37.098066    
    163000   397.25896     -1187.6343      36.489583      36.510956      37.098066    
    164000   395.92356     -1129.2835      36.489583      36.510956      37.098066    
    165000   405.29342     -1687.3364      36.489583      36.510956      37.098066    
    166000   398.14278     -1289.8455      36.489583      36.510956      37.098066    
    167000   391.64195     -967.61486      36.489583      36.510956      37.098066    
    168000   408.53965     -1833.1356      36.489583      36.510956      37.098066    
    169000   389.53084     -770.40116      36.489583      36.510956      37.098066    
    170000   399.21086     -1382.3488      36.489583      36.510956      37.098066    
    171000   396.46422     -1210.7599      36.489583      36.510956      37.098066    
    172000   403.46337     -1515.8         36.489583      36.510956      37.098066    
    173000   406.62498     -1707.6166      36.489583      36.510956      37.098066    
    174000   400.07959     -1398.2494      36.489583      36.510956      37.098066    
    175000   401.97068     -1496.3424      36.489583      36.510956      37.098066    
    176000   397.65358     -1287.3763      36.489583      36.510956      37.098066    
    177000   401.35785     -1423.2018      36.489583      36.510956      37.098066    
    178000   399.50992     -1314.0873      36.489583      36.510956      37.098066    
    179000   396.11499     -1174.691       36.489583      36.510956      37.098066    
    180000   399.89076     -1266.7312      36.489583      36.510956      37.098066    
    181000   404.22874     -1446.5385      36.489583      36.510956      37.098066    
    182000   400.27375     -1431.5942      36.489583      36.510956      37.098066    
    183000   402.57967     -1427.1271      36.489583      36.510956      37.098066    
    184000   410.85334     -2009.475       36.489583      36.510956      37.098066    
    185000   399.14115     -1305.9394      36.489583      36.510956      37.098066    
    186000   405.62757     -1570.1782      36.489583      36.510956      37.098066    
    187000   399.51522     -1199.7458      36.489583      36.510956      37.098066    
    188000   393.7771      -1065.3052      36.489583      36.510956      37.098066    
    189000   400.21372     -1283.311       36.489583      36.510956      37.098066    
    190000   403.06261     -1423.2188      36.489583      36.510956      37.098066    
    191000   401.48275     -1415.0282      36.489583      36.510956      37.098066    
    192000   388.71406     -602.10455      36.489583      36.510956      37.098066    
    193000   389.44374     -801.36144      36.489583      36.510956      37.098066    
    194000   401.27465     -1302.2134      36.489583      36.510956      37.098066    
    195000   405.96467     -1637.1787      36.489583      36.510956      37.098066    
    196000   406.95806     -1526.0144      36.489583      36.510956      37.098066    
    197000   398.51645     -1251.2379      36.489583      36.510956      37.098066    
    198000   403.74593     -1533.0203      36.489583      36.510956      37.098066    
    199000   403.01128     -1574.8998      36.489583      36.510956      37.098066    
    200000   400.92388     -1476.7723      36.489583      36.510956      37.098066    
    201000   400.20207     -1373.5771      36.489583      36.510956      37.098066    
    202000   407.58197     -1693.9265      36.489583      36.510956      37.098066    
    203000   390.58182     -901.73322      36.489583      36.510956      37.098066    
    204000   403.29281     -1529.0573      36.489583      36.510956      37.098066    
    205000   393.204       -1015.4244      36.489583      36.510956      37.098066    
    206000   401.58199     -1448.8504      36.489583      36.510956      37.098066    
    207000   396.43275     -1164.42        36.489583      36.510956      37.098066    
    208000   395.24538     -1022.3059      36.489583      36.510956      37.098066    
    209000   401.01061     -1416.0179      36.489583      36.510956      37.098066    
    210000   406.31185     -1808.9321      36.489583      36.510956      37.098066    
    211000   400.85213     -1431.1376      36.489583      36.510956      37.098066    
    212000   400.97846     -1389.6372      36.489583      36.510956      37.098066    
    213000   407.54005     -1822.6556      36.489583      36.510956      37.098066    
    214000   394.0999      -991.16532      36.489583      36.510956      37.098066    
    215000   393.50316     -949.49901      36.489583      36.510956      37.098066    
    216000   402.33629     -1428.5681      36.489583      36.510956      37.098066    
    217000   405.17466     -1610.3147      36.489583      36.510956      37.098066    
    218000   395.4883      -1090.7354      36.489583      36.510956      37.098066    
    219000   397.90318     -1259.2518      36.489583      36.510956      37.098066    
    220000   392.53842     -960.88858      36.489583      36.510956      37.098066    
    221000   398.74209     -1238.4875      36.489583      36.510956      37.098066    
    222000   406.44052     -1584.5687      36.489583      36.510956      37.098066    
    223000   400.05735     -1381.0977      36.489583      36.510956      37.098066    
    224000   395.70773     -1099.3947      36.489583      36.510956      37.098066    
    225000   406.37347     -1700.2849      36.489583      36.510956      37.098066    
    226000   404.06592     -1460.3178      36.489583      36.510956      37.098066    
    227000   403.39779     -1515.3844      36.489583      36.510956      37.098066    
    228000   404.26869     -1654.8119      36.489583      36.510956      37.098066    
    229000   406.39244     -1802.5448      36.489583      36.510956      37.098066    
    230000   402.69676     -1473.283       36.489583      36.510956      37.098066    
    231000   395.53036     -1059.9934      36.489583      36.510956      37.098066    
    232000   396.66271     -1069.1077      36.489583      36.510956      37.098066    
    233000   397.15254     -1063.6319      36.489583      36.510956      37.098066    
    234000   392.61195     -1069.8375      36.489583      36.510956      37.098066    
    235000   401.56368     -1534.1953      36.489583      36.510956      37.098066    
    236000   398.02748     -1373.5199      36.489583      36.510956      37.098066    
    237000   400.83616     -1460.4455      36.489583      36.510956      37.098066    
    238000   408.15753     -1882.5153      36.489583      36.510956      37.098066    
    239000   400.62934     -1532.3795      36.489583      36.510956      37.098066    
    240000   394.72844     -1192.3175      36.489583      36.510956      37.098066    
    241000   402.7299      -1619.7907      36.489583      36.510956      37.098066    
    242000   404.57847     -1702.0596      36.489583      36.510956      37.098066    
    243000   403.39749     -1617.6328      36.489583      36.510956      37.098066    
    244000   405.85561     -1744.2806      36.489583      36.510956      37.098066    
    245000   400.48638     -1492.8029      36.489583      36.510956      37.098066    
    246000   402.96593     -1536.6693      36.489583      36.510956      37.098066    
    247000   398.27406     -1332.4886      36.489583      36.510956      37.098066    
    248000   401.37129     -1492.031       36.489583      36.510956      37.098066    
    249000   405.09756     -1731.2623      36.489583      36.510956      37.098066    
    250000   396.15158     -1185.0001      36.489583      36.510956      37.098066    
    251000   403.79082     -1585.8581      36.489583      36.510956      37.098066    
    252000   405.53264     -1640.5036      36.489583      36.510956      37.098066    
    253000   398.14418     -1259.9899      36.489583      36.510956      37.098066    
    254000   394.54309     -1210.1769      36.489583      36.510956      37.098066    
    255000   402.91484     -1530.9816      36.489583      36.510956      37.098066    
    256000   404.99137     -1770.0011      36.489583      36.510956      37.098066    
    257000   402.44962     -1491.781       36.489583      36.510956      37.098066    
    258000   396.9828      -1309.088       36.489583      36.510956      37.098066    
    259000   403.60345     -1775.7628      36.489583      36.510956      37.098066    
    260000   402.53931     -1574.3629      36.489583      36.510956      37.098066    
    261000   399.103       -1386.5311      36.489583      36.510956      37.098066    
    262000   404.91937     -1594.5544      36.489583      36.510956      37.098066    
    263000   395.11469     -1291.3858      36.489583      36.510956      37.098066    
    264000   396.59034     -1312.5891      36.489583      36.510956      37.098066    
    265000   400.82768     -1444.2655      36.489583      36.510956      37.098066    
    266000   407.1033      -1856.2588      36.489583      36.510956      37.098066    
    267000   396.6219      -1278.0407      36.489583      36.510956      37.098066    
    268000   407.29705     -1846.4881      36.489583      36.510956      37.098066    
    269000   396.69847     -1311.9405      36.489583      36.510956      37.098066    
    270000   404.32989     -1676.9829      36.489583      36.510956      37.098066    
    271000   404.01086     -1661.1355      36.489583      36.510956      37.098066    
    272000   407.19851     -1882.0577      36.489583      36.510956      37.098066    
    273000   397.79377     -1360.8787      36.489583      36.510956      37.098066    
    274000   398.06154     -1347.5678      36.489583      36.510956      37.098066    
    275000   408.91223     -1882.5617      36.489583      36.510956      37.098066    
    276000   401.82411     -1391.8742      36.489583      36.510956      37.098066    
    277000   390.37184     -877.84438      36.489583      36.510956      37.098066    
    278000   393.9388      -994.95204      36.489583      36.510956      37.098066    
    279000   403.54753     -1636.2379      36.489583      36.510956      37.098066    
    280000   400.01686     -1515.9024      36.489583      36.510956      37.098066    
    281000   402.84298     -1624.8498      36.489583      36.510956      37.098066    
    282000   399.74414     -1442.9955      36.489583      36.510956      37.098066    
    283000   404.85677     -1616.846       36.489583      36.510956      37.098066    
    284000   395.90102     -1119.6256      36.489583      36.510956      37.098066    
    285000   399.13664     -1269.0492      36.489583      36.510956      37.098066    
    286000   402.31017     -1387.5475      36.489583      36.510956      37.098066    
    287000   405.22417     -1616.6633      36.489583      36.510956      37.098066    
    288000   403.66113     -1517.273       36.489583      36.510956      37.098066    
    289000   403.74475     -1648.1981      36.489583      36.510956      37.098066    
    290000   408.94996     -1822.0086      36.489583      36.510956      37.098066    
    291000   407.3237      -1826.3549      36.489583      36.510956      37.098066    
    292000   401.62349     -1527.3242      36.489583      36.510956      37.098066    
    293000   398.80315     -1401.9528      36.489583      36.510956      37.098066    
    294000   398.61426     -1453.5224      36.489583      36.510956      37.098066    
    295000   401.14502     -1579.6407      36.489583      36.510956      37.098066    
    296000   399.66872     -1504.062       36.489583      36.510956      37.098066    
    297000   404.30248     -1676.5543      36.489583      36.510956      37.098066    
    298000   402.01343     -1583.154       36.489583      36.510956      37.098066    
    299000   406.73345     -1768.3663      36.489583      36.510956      37.098066    
    300000   396.6871      -1248.9243      36.489583      36.510956      37.098066    
    301000   394.16236     -1011.8829      36.489583      36.510956      37.098066    
    302000   404.73143     -1679.1703      36.489583      36.510956      37.098066    
    303000   401.77245     -1656.9858      36.489583      36.510956      37.098066    
    304000   403.68808     -1627.4499      36.489583      36.510956      37.098066    
    305000   408.60845     -1714.4128      36.489583      36.510956      37.098066    
    306000   399.7927      -1318.2377      36.489583      36.510956      37.098066    
    307000   406.78495     -1806.7204      36.489583      36.510956      37.098066    
    308000   396.28314     -1253.6724      36.489583      36.510956      37.098066    
    309000   400.99986     -1599.6059      36.489583      36.510956      37.098066    
    310000   405.42262     -1834.7838      36.489583      36.510956      37.098066    
    311000   400.81494     -1506.472       36.489583      36.510956      37.098066    
    312000   409.49934     -1978.5197      36.489583      36.510956      37.098066    
    313000   401.33177     -1550.2871      36.489583      36.510956      37.098066    
    314000   401.27482     -1496.9319      36.489583      36.510956      37.098066    
    315000   401.95647     -1524.697       36.489583      36.510956      37.098066    
    316000   404.37064     -1592.4362      36.489583      36.510956      37.098066    
    317000   400.2367      -1490.2996      36.489583      36.510956      37.098066    
    318000   404.21266     -1521.7074      36.489583      36.510956      37.098066    
    319000   400.03829     -1452.442       36.489583      36.510956      37.098066    
    320000   404.62107     -1605.1201      36.489583      36.510956      37.098066    
    321000   407.74747     -1737.806       36.489583      36.510956      37.098066    
    322000   404.74215     -1702.8152      36.489583      36.510956      37.098066    
    323000   406.83258     -1790.1509      36.489583      36.510956      37.098066    
    324000   409.42126     -1913.674       36.489583      36.510956      37.098066    
    325000   407.31997     -1840.9213      36.489583      36.510956      37.098066    
    326000   397.42168     -1310.5438      36.489583      36.510956      37.098066    
    327000   399.38725     -1315.9711      36.489583      36.510956      37.098066    
    328000   400.19754     -1463.7007      36.489583      36.510956      37.098066    
    329000   395.26157     -1193.7037      36.489583      36.510956      37.098066    
    330000   408.59619     -1897.4343      36.489583      36.510956      37.098066    
    331000   405.23083     -1716.6809      36.489583      36.510956      37.098066    
    332000   398.66325     -1463.3124      36.489583      36.510956      37.098066    
    333000   393.92376     -1141.4923      36.489583      36.510956      37.098066    
    334000   412.54174     -2162.9652      36.489583      36.510956      37.098066    
    335000   403.31932     -1602.7611      36.489583      36.510956      37.098066    
    336000   398.45261     -1373.271       36.489583      36.510956      37.098066    
    337000   396.13956     -1205.4404      36.489583      36.510956      37.098066    
    338000   401.42154     -1558.9891      36.489583      36.510956      37.098066    
    339000   406.50715     -1640.778       36.489583      36.510956      37.098066    
    340000   407.68265     -1791.1257      36.489583      36.510956      37.098066    
    341000   403.05535     -1604.3845      36.489583      36.510956      37.098066    
    342000   394.98244     -1108.9973      36.489583      36.510956      37.098066    
    343000   405.81395     -1657.6658      36.489583      36.510956      37.098066    
    344000   398.06127     -1263.1054      36.489583      36.510956      37.098066    
    345000   409.42282     -1719.5519      36.489583      36.510956      37.098066    
    346000   403.32509     -1314.061       36.489583      36.510956      37.098066    
    347000   403.01474     -1488.8064      36.489583      36.510956      37.098066    
    348000   401.58507     -1493.497       36.489583      36.510956      37.098066    
    349000   400.15279     -1326.8582      36.489583      36.510956      37.098066    
    350000   401.30833     -1538.2553      36.489583      36.510956      37.098066    
    351000   409.92186     -1933.2318      36.489583      36.510956      37.098066    
    352000   397.79764     -1292.2263      36.489583      36.510956      37.098066    
    353000   409.79036     -1998.067       36.489583      36.510956      37.098066    
    354000   400.33553     -1322.932       36.489583      36.510956      37.098066    
    355000   403.82863     -1518.8199      36.489583      36.510956      37.098066    
    356000   403.78302     -1589.9556      36.489583      36.510956      37.098066    
    357000   404.72592     -1690.6629      36.489583      36.510956      37.098066    
    358000   402.81296     -1554.3561      36.489583      36.510956      37.098066    
    359000   397.71437     -1206.0365      36.489583      36.510956      37.098066    
    360000   396.87364     -1161.1306      36.489583      36.510956      37.098066    
    361000   402.68571     -1396.4333      36.489583      36.510956      37.098066    
    362000   398.86154     -1252.222       36.489583      36.510956      37.098066    
    363000   397.2556      -1133.5284      36.489583      36.510956      37.098066    
    364000   405.85356     -1579.5389      36.489583      36.510956      37.098066    
    365000   398.16233     -1193.4157      36.489583      36.510956      37.098066    
    366000   405.81379     -1655.5718      36.489583      36.510956      37.098066    
    367000   407.48186     -1760.4898      36.489583      36.510956      37.098066    
    368000   405.53796     -1748.3295      36.489583      36.510956      37.098066    
    369000   397.86352     -1164.1367      36.489583      36.510956      37.098066    
    370000   403.76776     -1569.4565      36.489583      36.510956      37.098066    
    371000   402.91288     -1453.7332      36.489583      36.510956      37.098066    
    372000   396.90125     -1021.5663      36.489583      36.510956      37.098066    
    373000   398.1701      -1122.0235      36.489583      36.510956      37.098066    
    374000   397.04043     -994.69389      36.489583      36.510956      37.098066    
    375000   396.84519     -1105.7493      36.489583      36.510956      37.098066    
    376000   400.62589     -1319.7842      36.489583      36.510956      37.098066    
    377000   401.35357     -1414.3644      36.489583      36.510956      37.098066    
    378000   404.11384     -1580.3996      36.489583      36.510956      37.098066    
    379000   406.22089     -1707.5956      36.489583      36.510956      37.098066    
    380000   407.89903     -1832.2899      36.489583      36.510956      37.098066    
    381000   393.50797     -1029.1671      36.489583      36.510956      37.098066    
    382000   398.60899     -1269.6305      36.489583      36.510956      37.098066    
    383000   401.94451     -1409.3139      36.489583      36.510956      37.098066    
    384000   405.84076     -1652.9724      36.489583      36.510956      37.098066    
    385000   407.91696     -1925.7451      36.489583      36.510956      37.098066    
    386000   408.04146     -1832.3337      36.489583      36.510956      37.098066    
    387000   394.91394     -1199.0496      36.489583      36.510956      37.098066    
    388000   399.58275     -1451.5344      36.489583      36.510956      37.098066    
    389000   401.35026     -1515.8567      36.489583      36.510956      37.098066    
    390000   403.15222     -1715.8651      36.489583      36.510956      37.098066    
    391000   393.16599     -1074.0443      36.489583      36.510956      37.098066    
    392000   401.41165     -1504.1887      36.489583      36.510956      37.098066    
    393000   398.32336     -1371.2651      36.489583      36.510956      37.098066    
    394000   397.69035     -1392.9533      36.489583      36.510956      37.098066    
    395000   410.98202     -2060.7845      36.489583      36.510956      37.098066    
    396000   404.19628     -1574.6082      36.489583      36.510956      37.098066    
    397000   397.13709     -1300.3581      36.489583      36.510956      37.098066    
    398000   402.93519     -1479.8398      36.489583      36.510956      37.098066    
    399000   402.84559     -1624.0012      36.489583      36.510956      37.098066    
    400000   402.38147     -1544.5556      36.489583      36.510956      37.098066    
    401000   395.86035     -1238.9191      36.489583      36.510956      37.098066    
    402000   395.11845     -1050.1126      36.489583      36.510956      37.098066    
    403000   397.23675     -1131.365       36.489583      36.510956      37.098066    
    404000   398.04436     -1254.4042      36.489583      36.510956      37.098066    
    405000   404.25208     -1597.7052      36.489583      36.510956      37.098066    
    406000   399.58964     -1396.4602      36.489583      36.510956      37.098066    
    407000   398.42125     -1368.5412      36.489583      36.510956      37.098066    
    408000   400.03646     -1423.8894      36.489583      36.510956      37.098066    
    409000   405.65735     -1744.0943      36.489583      36.510956      37.098066    
    410000   409.58084     -1871.0962      36.489583      36.510956      37.098066    
    411000   390.87835     -895.30447      36.489583      36.510956      37.098066    
    412000   406.68381     -1625.2731      36.489583      36.510956      37.098066    
    413000   395.75691     -1218.1751      36.489583      36.510956      37.098066    
    414000   394.12566     -1163.8398      36.489583      36.510956      37.098066    
    415000   398.29439     -1291.5573      36.489583      36.510956      37.098066    
    416000   396.44784     -1250.4678      36.489583      36.510956      37.098066    
    417000   409.4315      -2004.1342      36.489583      36.510956      37.098066    
    418000   398.38012     -1347.7999      36.489583      36.510956      37.098066    
    419000   398.03198     -1320.4554      36.489583      36.510956      37.098066    
    420000   398.56688     -1265.7732      36.489583      36.510956      37.098066    
    421000   404.54351     -1650.4245      36.489583      36.510956      37.098066    
    422000   398.76927     -1359.7874      36.489583      36.510956      37.098066    
    423000   404.71655     -1532.1915      36.489583      36.510956      37.098066    
    424000   404.08797     -1551.4889      36.489583      36.510956      37.098066    
    425000   400.06863     -1303.0682      36.489583      36.510956      37.098066    
    426000   397.50896     -1288.4263      36.489583      36.510956      37.098066    
    427000   400.37339     -1491.1523      36.489583      36.510956      37.098066    
    428000   401.87161     -1477.6851      36.489583      36.510956      37.098066    
    429000   403.30002     -1626.2916      36.489583      36.510956      37.098066    
    430000   400.35292     -1422.9491      36.489583      36.510956      37.098066    
    431000   406.81622     -1708.9226      36.489583      36.510956      37.098066    
    432000   400.96821     -1439.8388      36.489583      36.510956      37.098066    
    433000   410.24796     -1846.5336      36.489583      36.510956      37.098066    
    434000   407.53778     -1728.1874      36.489583      36.510956      37.098066    
    435000   404.77061     -1576.3976      36.489583      36.510956      37.098066    
    436000   406.2624      -1711.2625      36.489583      36.510956      37.098066    
    437000   405.06861     -1488.0509      36.489583      36.510956      37.098066    
    438000   409.37212     -1744.5375      36.489583      36.510956      37.098066    
    439000   403.7355      -1498.0319      36.489583      36.510956      37.098066    
    440000   402.82313     -1556.1187      36.489583      36.510956      37.098066    
    441000   406.55359     -1674.5255      36.489583      36.510956      37.098066    
    442000   410.33285     -1918.1861      36.489583      36.510956      37.098066    
    443000   401.6203      -1445.082       36.489583      36.510956      37.098066    
    444000   389.64021     -787.37313      36.489583      36.510956      37.098066    
    445000   396.40084     -1138.0362      36.489583      36.510956      37.098066    
    446000   405.71804     -1539.9781      36.489583      36.510956      37.098066    
    447000   400.1755      -1387.8405      36.489583      36.510956      37.098066    
    448000   407.04747     -1743.6907      36.489583      36.510956      37.098066    
    449000   400.4786      -1380.4339      36.489583      36.510956      37.098066    
    450000   405.10911     -1705.1601      36.489583      36.510956      37.098066    
    451000   396.59671     -1276.0033      36.489583      36.510956      37.098066    
    452000   402.89304     -1596.5038      36.489583      36.510956      37.098066    
    453000   401.51182     -1535.2946      36.489583      36.510956      37.098066    
    454000   402.68832     -1666.4104      36.489583      36.510956      37.098066    
    455000   392.5994      -1020.7187      36.489583      36.510956      37.098066    
    456000   396.8795      -1341.6063      36.489583      36.510956      37.098066    
    457000   412.74206     -2249.4745      36.489583      36.510956      37.098066    
    458000   397.43398     -1291.8304      36.489583      36.510956      37.098066    
    459000   398.89295     -1531.1189      36.489583      36.510956      37.098066    
    460000   397.69676     -1346.455       36.489583      36.510956      37.098066    
    461000   393.4122      -1117.8933      36.489583      36.510956      37.098066    
    462000   399.60274     -1401.5932      36.489583      36.510956      37.098066    
    463000   402.71604     -1538.2569      36.489583      36.510956      37.098066    
    464000   399.1455      -1439.7302      36.489583      36.510956      37.098066    
    465000   395.68387     -1125.9437      36.489583      36.510956      37.098066    
    466000   404.84482     -1593.0956      36.489583      36.510956      37.098066    
    467000   395.36419     -1154.8064      36.489583      36.510956      37.098066    
    468000   397.06572     -1166.7663      36.489583      36.510956      37.098066    
    469000   400.24766     -1533.7272      36.489583      36.510956      37.098066    
    470000   399.93428     -1366.9654      36.489583      36.510956      37.098066    
    471000   399.80403     -1449.4943      36.489583      36.510956      37.098066    
    472000   395.17129     -1157.8772      36.489583      36.510956      37.098066    
    473000   401.91523     -1540.0501      36.489583      36.510956      37.098066    
    474000   400.41856     -1540.9124      36.489583      36.510956      37.098066    
    475000   406.36454     -1709.2654      36.489583      36.510956      37.098066    
    476000   398.43137     -1420.7635      36.489583      36.510956      37.098066    
    477000   407.59967     -1860.319       36.489583      36.510956      37.098066    
    478000   403.30806     -1671.4109      36.489583      36.510956      37.098066    
    479000   406.8934      -1831.6376      36.489583      36.510956      37.098066    
    480000   400.52176     -1452.4017      36.489583      36.510956      37.098066    
    481000   398.19092     -1432.8854      36.489583      36.510956      37.098066    
    482000   401.32761     -1619.1137      36.489583      36.510956      37.098066    
    483000   394.05322     -1143.4552      36.489583      36.510956      37.098066    
    484000   401.74801     -1533.1866      36.489583      36.510956      37.098066    
    485000   399.24627     -1370.3666      36.489583      36.510956      37.098066    
    486000   402.6451      -1648.3214      36.489583      36.510956      37.098066    
    487000   403.10721     -1617.1302      36.489583      36.510956      37.098066    
    488000   402.98732     -1494.1833      36.489583      36.510956      37.098066    
    489000   399.4355      -1421.5281      36.489583      36.510956      37.098066    
    490000   399.02939     -1291.9099      36.489583      36.510956      37.098066    
    491000   405.3091      -1705.0942      36.489583      36.510956      37.098066    
    492000   400.9139      -1397.325       36.489583      36.510956      37.098066    
    493000   403.37961     -1410.2751      36.489583      36.510956      37.098066    
    494000   402.87627     -1515.1575      36.489583      36.510956      37.098066    
    495000   411.09114     -2044.2372      36.489583      36.510956      37.098066    
    496000   407.02785     -1801.4057      36.489583      36.510956      37.098066    
    497000   396.86698     -1288.5587      36.489583      36.510956      37.098066    
    498000   400.07985     -1370.1519      36.489583      36.510956      37.098066    
    499000   408.13365     -2003.6442      36.489583      36.510956      37.098066    
    500000   403.0533      -1612.1518      36.489583      36.510956      37.098066    
Loop time of 210.38 on 40 procs for 500000 steps with 2592 atoms

Performance: 205.343 ns/day, 0.117 hours/ns, 2376.657 timesteps/s, 6.160 Matom-step/s
88.9% CPU use with 40 MPI tasks x no OpenMP threads

MPI task timing breakdown:
Section |  min time  |  avg time  |  max time  |%varavg| %total
---------------------------------------------------------------
Pair    | 47.324     | 58.54      | 65.264     |  78.2 | 27.83
Neigh   | 4.8061     | 5.6129     | 6.1461     |  20.1 |  2.67
Comm    | 77.271     | 85.267     | 96.757     |  66.3 | 40.53
Output  | 0.018676   | 0.019128   | 0.021578   |   0.3 |  0.01
Modify  | 51.506     | 53.542     | 55.975     |  18.2 | 25.45
Other   |            | 7.398      |            |       |  3.52

Nlocal:           64.8 ave          76 max          54 min
Histogram: 4 4 4 3 6 4 2 5 6 2
Nghost:        1603.65 ave        1639 max        1556 min
Histogram: 5 3 0 0 3 8 8 4 3 6
Neighs:        7728.23 ave        9550 max        5843 min
Histogram: 1 3 5 6 5 4 7 2 6 1

Total # of neighbors = 309129
Ave neighs/atom = 119.26273
Neighbor list builds = 24632
Dangerous builds = 0
Program is finished successfully
Total wall time: 0:11:45
